%NProcShared=8
%mem = 32GB
%Chk=check_sp_3
#n M062X/6-311++G(d,p) SP pop=reg
 
 SP_-3

1 1
    C    2.492919626590069    1.3727384489125978    0.0
    C    3.704020320065655    0.6798087320475993    0.0
    C    3.689299343455067    -0.71218796471071    0.0
    C    2.4755267418957745    -1.4051135945835045    0.0
    C    -2.462293258104227    -1.4000048543290933    -0.0
    C    -3.6956391054575297    -0.7019397086581862    -0.0
    C    -3.7158381288469435    0.6845481657775951    -0.0
    C    -2.5039064956914237    1.372861551087403    -0.0
    C    -0.002554370127205581    1.4664645711940911    0.0
    C    0.009632745178498155    -1.4244992244562993    0.0
    C    1.2678206565449328    0.691176942962659    0.0
    C    1.242991267952401    -0.7241062864177268    0.0
    C    -1.2613885679113666    0.6835753836684448    -0.0
    C    -1.2381595075913008    -0.722782938038572    -0.0
    H    2.493296569552728    2.457976122281494    0.0
    H    4.641446524415264    1.220714160853509    0.0
    H    4.6192137135822735    -1.2671747353303247    0.0
    H    2.476852207632336    -2.4895381657775952    0.0
    H    0.008217070168239641    -2.507508448912597    0.0
    H    -2.470327792367666    -2.4847987320475986    -0.0
    H    -4.620444735330324    -1.265943713582274    -0.0
    H    -4.652741148953633    1.2250842880590895    -0.0
    H    -2.49674343044727    2.458253102174806    -0.0
    H    -0.014187525646286423    2.1567107755437016    -0.8636776733688963
    H    -0.014218301189987693    2.1567107755437016    0.8636776733688963

