%NProcShared=8
%mem = 32GB
%Chk=check_sp_12
#n M062X/6-311++G(d,p) SP pop=reg
 
 SP_-12

1 1
    C    2.4762085063602752    1.372553795650391    0.0
    C    3.686201280262621    0.6725149281903972    0.0
    C    3.679697373820269    -0.72742185884284    0.0
    C    2.495376967583098    -1.4126843783340177    0.0
    C    -2.4424430324169077    -1.392249417316373    -0.0
    C    -3.705056421830119    -0.686428834632745    -0.0
    C    -3.733472515387773    0.6914726631103806    -0.0
    C    -2.5201559827656954    1.3730462043496119    -0.0
    C    -0.010217480508822324    1.465818284776364    0.0
    C    0.03853098071399262    -1.424406897825197    0.0
    C    1.2774226261797312    0.7027177718506357    0.0
    C    1.250285071809603    -0.7260451456709074    0.0
    C    -1.2516942716454658    0.6723115346737792    -0.0
    C    -1.2309580303652032    -0.7207517521542881    -0.0
    H    2.4881262782109133    2.457514489125976    0.0
    H    4.624366097661057    1.2140666434140357    0.0
    H    4.617274854329093    -1.2689289413212985    0.0
    H    2.486638830529343    -2.496462663110382    0.0
    H    0.032868280672958564    -2.507323795650388    0.0
    H    -2.460541169470663    -2.4775049281903945    -0.0
    H    -4.622198941321296    -1.2640048543290954    -0.0
    H    -4.669544595814531    1.2315471522363581    -0.0
    H    -2.5019137217890806    2.458622408699224    -0.0
    H    -0.05675010258514569    2.156803102174806    -0.8634006934755851
    H    -0.05687320475995077    2.156803102174806    0.8634006934755851

