%NProcShared=16
%mem = 64GB
#n M062X/6-311++G(d,p) TD(NStates=1) EmpiricalDispersion=GD3 SP
 
 SP_3

1 1
    C    0.0    2.444655    1.360431
    C    0.0    3.647508    0.6479889999999999
    C    -0.0    3.6568609999999997    -0.76183
    C    -0.0    2.523156    -1.431538
    C    0.0    -2.403156    -1.383538
    C    -0.0    -3.710861    -0.6658299999999999
    C    -0.0    -3.755508    0.695989
    C    -0.0    -2.540655    1.360431
    C    0.0    -0.024    1.453369
    C    0.0    0.087    -1.429189
    C    -0.0    1.2890549999999998    0.7100650000000001
    C    -0.0    1.264471    -0.733804
    C    -0.0    -1.235055    0.644065
    C    0.0    -1.210471    -0.727804
    H    0.0    2.473071    2.443647
    H    0.0    4.582752999999999    1.190689
    H    -0.0    4.606262    -1.278349
    H    -0.0    2.4945500000000003    -2.514059
    H    0.0    0.075    -2.510266
    H    0.0    -2.44055    -2.466059
    H    0.0    -4.612262    -1.266349
    H    -0.0    -4.690753    1.232689
    H    0.0    -2.5030710000000003    2.443647
    H    -0.859585    -0.132    2.145787
    H    0.859585    -0.132    2.145787

