%NProcShared=16
%mem = 64GB
#n M062X/6-311++G(d,p) TD(NStates=1) EmpiricalDispersion=GD3 SP
 
 SP_5

1 1
    C    0.0    2.412655    1.360431
    C    0.0    3.611508    0.6319889999999999
    C    -0.0    3.638861    -0.7938299999999999
    C    -0.0    2.563156    -1.447538
    C    0.0    -2.363156    -1.367538
    C    -0.0    -3.7288609999999998    -0.63383
    C    -0.0    -3.791508    0.711989
    C    -0.0    -2.572655    1.360431
    C    0.0    -0.04    1.453369
    C    0.0    0.145    -1.429189
    C    -0.0    1.3070549999999999    0.7320650000000001
    C    -0.0    1.282471    -0.735804
    C    -0.0    -1.217055    0.622065
    C    0.0    -1.192471    -0.725804
    H    0.0    2.4630710000000002    2.443647
    H    0.0    4.546753    1.176689
    H    -0.0    4.604262    -1.282349
    H    -0.0    2.51255    -2.530059
    H    0.0    0.125    -2.510266
    H    0.0    -2.42255    -2.450059
    H    0.0    -4.614262    -1.262349
    H    -0.0    -4.7267529999999995    1.246689
    H    0.0    -2.513071    2.443647
    H    -0.859585    -0.22000000000000003    2.145787
    H    0.859585    -0.22000000000000003    2.145787

