%NProcShared=48
%mem = 190GB
#n M062X/6-311++G(d,p) TD(NStates=1) EmpiricalDispersion=GD3 SP
 
 SP_-8

1 1
    C    0.0    2.646655    1.356431
    C    -0.0    3.857508    0.701989
    C    0.0    3.745861    -0.61983
    C    0.0    2.279156    -1.347538
    C    -0.0    -2.5991560000000002    -1.475538
    C    0.0    -3.601861    -0.87583
    C    0.0    -3.569508    0.5739889999999999
    C    0.0    -2.3906549999999998    1.356431
    C    -0.0    0.064    1.483369
    C    0.0    -0.23199999999999998    -1.399189
    C    0.0    1.1960549999999999    0.6150650000000001
    C    0.0    1.161471    -0.696804
    C    0.0    -1.340055    0.791065
    C    -0.0    -1.305471    -0.712804
    H    0.0    2.586071    2.439647
    H    -0.0    4.802753    1.215689
    H    0.0    4.597262000000001    -1.308349
    H    0.0    2.3415500000000002    -2.430059
    H    0.0    -0.2    -2.478266
    H    -0.0    -2.4855500000000004    -2.558059
    H    0.0    -4.581262000000001    -1.340349
    H    0.0    -4.514753    1.103689
    H    -0.0    -2.506071    2.439647
    H    -0.859585    0.352    2.1757869999999997
    H    0.859585    0.352    2.1757869999999997

