%NProcShared=48
%mem = 190GB
#n M062X/6-311++G(d,p) TD(NStates=1) EmpiricalDispersion=GD3 SP
 
 SP_-8

1 1
    C    -0.0    2.568655    1.368431
    C    0.0    3.821508    0.8039890000000001
    C    0.0    3.775861    -0.51783
    C    0.0    2.351156    -1.335538
    C    0.0    -2.6711560000000003    -1.463538
    C    0.0    -3.631861    -0.77383
    C    0.0    -3.533508    0.675989
    C    0.0    -2.312655    1.368431
    C    0.0    0.064    1.3933689999999999
    C    0.0    -0.23199999999999998    -1.489189
    C    0.0    1.1780549999999999    0.537065
    C    0.0    1.173471    -0.774804
    C    0.0    -1.322055    0.713065
    C    0.0    -1.317471    -0.7908040000000001
    H    -0.0    2.412071    2.451647
    H    0.0    4.736753    1.3716890000000002
    H    0.0    4.657262    -1.1523489999999998
    H    0.0    2.50355    -2.418059
    H    0.0    -0.2    -2.574266
    H    0.0    -2.6475500000000003    -2.546059
    H    -0.0    -4.641262    -1.1843489999999999
    H    0.0    -4.448753    1.259689
    H    0.0    -2.332071    2.451647
    H    -0.859585    0.352    2.085787
    H    0.859585    0.352    2.085787

