%NProcShared=48
%mem = 190GB
#n M062X/6-311++G(d,p) TD(NStates=1) EmpiricalDispersion=GD3 SP
 
 SP_12

1 1
    C    0.0    2.274655    1.364431
    C    0.0    3.473508    0.609989
    C    0.0    3.5858609999999995    -0.8718299999999999
    C    -0.0    2.7271560000000004    -1.499538
    C    0.0    -2.247156    -1.3075379999999999
    C    -0.0    -3.8018609999999997    -0.48783
    C    -0.0    -3.905508    0.801989
    C    0.0    -2.6586550000000004    1.364431
    C    0.0    -0.096    1.4233689999999999
    C    0.0    0.348    -1.459189
    C    -0.0    1.364055    0.783065
    C    -0.0    1.349471    -0.768804
    C    0.0    -1.1480549999999998    0.519065
    C    0.0    -1.133471    -0.744804
    H    0.0    2.3700710000000003    2.447647
    H    0.0    4.398752999999999    1.179689
    H    0.0    4.617262    -1.244349
    H    -0.0    2.62955    -2.582059
    H    0.0    0.3    -2.542266
    H    0.0    -2.41355    -2.390059
    H    0.0    -4.641261999999999    -1.1963489999999999
    H    -0.0    -4.830753    1.3476890000000001
    H    0.0    -2.4900710000000004    2.447647
    H    -0.859585    -0.528    2.115787
    H    0.859585    -0.528    2.115787

