%NProcShared=48
%mem = 190GB
#n M062X/6-311++G(d,p) TD(NStates=1) EmpiricalDispersion=GD3 SP
 
 SP_-6

1 1
    C    -0.0    2.5626550000000003    1.364431
    C    0.0    3.797508    0.753989
    C    0.0    3.7478609999999994    -0.58383
    C    0.0    2.367156    -1.355538
    C    0.0    -2.6071560000000003    -1.451538
    C    0.0    -3.639861    -0.7758299999999999
    C    0.0    -3.581508    0.6579889999999999
    C    0.0    -2.370655    1.364431
    C    0.0    0.048    1.4233689999999999
    C    0.0    -0.174    -1.459189
    C    0.0    1.2020549999999999    0.585065
    C    0.0    1.187471    -0.750804
    C    0.0    -1.310055    0.7170650000000001
    C    0.0    -1.295471    -0.762804
    H    -0.0    2.460071    2.447647
    H    0.0    4.722752999999999    1.305689
    H    0.0    4.635262    -1.208349
    H    0.0    2.46755    -2.438059
    H    0.0    -0.15    -2.542266
    H    0.0    -2.57555    -2.534059
    H    -0.0    -4.6232619999999995    -1.232349
    H    0.0    -4.506753    1.221689
    H    0.0    -2.4000710000000005    2.447647
    H    -0.859585    0.264    2.115787
    H    0.859585    0.264    2.115787

