%NProcShared=48
%mem = 190GB
#n M062X/6-311++G(d,p) TD(NStates=1) EmpiricalDispersion=GD3 SP
 
 SP_-12

1 1
    C    0.0    2.7366550000000003    1.352431
    C    -0.0    3.9415080000000002    0.699989
    C    0.0    3.771861    -0.5898300000000001
    C    0.0    2.175156    -1.3195379999999999
    C    -0.0    -2.6551560000000003    -1.511538
    C    0.0    -3.5558609999999997    -0.97383
    C    0.0    -3.509508    0.507989
    C    0.0    -2.352655    1.352431
    C    -0.0    0.096    1.513369
    C    0.0    -0.348    -1.369189
    C    0.0    1.1660549999999998    0.5970650000000001
    C    0.0    1.1214709999999999    -0.666804
    C    0.0    -1.382055    0.8610650000000001
    C    -0.0    -1.337471    -0.690804
    H    0.0    2.6640710000000003    2.435647
    H    -0.0    4.8967529999999995    1.191689
    H    0.0    4.581262    -1.352349
    H    0.0    2.25155    -2.402059
    H    0.0    -0.3    -2.446266
    H    -0.0    -2.46755    -2.594059
    H    0.0    -4.557262000000001    -1.400349
    H    0.0    -4.464752999999999    1.0236889999999998
    H    -0.0    -2.544071    2.435647
    H    -0.859585    0.528    2.205787
    H    0.859585    0.528    2.205787

