%NProcShared=48
%mem = 190GB
#n M062X/6-311++G(d,p) TD(NStates=1) EmpiricalDispersion=GD3 SP
 
 SP_-14

1 1
    C    0.0    2.742655    1.356431
    C    -0.0    3.9655080000000003    0.7499889999999999
    C    0.0    3.799861    -0.5238299999999999
    C    0.0    2.1591560000000003    -1.2995379999999999
    C    -0.0    -2.719156    -1.523538
    C    0.0    -3.547861    -0.97183
    C    0.0    -3.461508    0.5259889999999999
    C    0.0    -2.2946549999999997    1.356431
    C    -0.0    0.11200000000000002    1.483369
    C    0.0    -0.40599999999999997    -1.399189
    C    0.0    1.1420549999999998    0.549065
    C    0.0    1.1074709999999999    -0.690804
    C    0.0    -1.394055    0.8570650000000001
    C    -0.0    -1.359471    -0.718804
    H    0.0    2.616071    2.439647
    H    -0.0    4.910753    1.257689
    H    0.0    4.603262000000001    -1.296349
    H    0.0    2.2875500000000004    -2.382059
    H    0.0    -0.35    -2.478266
    H    -0.0    -2.53955    -2.606059
    H    0.0    -4.575262    -1.352349
    H    0.0    -4.406753    1.0616889999999999
    H    -0.0    -2.476071    2.439647
    H    -0.859585    0.616    2.1757869999999997
    H    0.859585    0.616    2.1757869999999997

