%NProcShared=48
%mem = 190GB
#n M062X/6-311++G(d,p) TD(NStates=1) EmpiricalDispersion=GD3 SP
 
 SP_-6

1 1
    C    0.0    2.666655    1.348431
    C    -0.0    3.845508    0.617989
    C    0.0    3.707861    -0.71983
    C    0.0    2.271156    -1.371538
    C    -0.0    -2.511156    -1.467538
    C    0.0    -3.599861    -0.9118299999999999
    C    0.0    -3.629508    0.5219889999999999
    C    0.0    -2.474655    1.348431
    C    -0.0    0.048    1.543369
    C    0.0    -0.174    -1.339189
    C    0.0    1.226055    0.6890649999999999
    C    0.0    1.171471    -0.646804
    C    0.0    -1.334055    0.821065
    C    -0.0    -1.279471    -0.6588040000000001
    H    0.0    2.692071    2.431647
    H    -0.0    4.810752999999999    1.0976890000000001
    H    0.0    4.555262000000001    -1.4163489999999999
    H    0.0    2.2515500000000004    -2.454059
    H    0.0    -0.15    -2.414266
    H    -0.0    -2.35955    -2.550059
    H    0.0    -4.543262    -1.4403489999999999
    H    0.0    -4.594753    1.013689
    H    -0.0    -2.6320710000000003    2.431647
    H    -0.859585    0.264    2.2357869999999997
    H    0.859585    0.264    2.2357869999999997

