%NProcShared=48
%mem = 190GB
#n M062X/6-311++G(d,p) TD(NStates=1) EmpiricalDispersion=GD3 SP
 
 SP_12

1 1
    C    0.0    2.3786549999999997    1.348431
    C    0.0    3.521508    0.473989
    C    -0.0    3.545861    -1.00783
    C    0.0    2.6311560000000003    -1.515538
    C    0.0    -2.151156    -1.3235379999999999
    C    0.0    -3.761861    -0.62383
    C    0.0    -3.9535080000000002    0.6659889999999999
    C    -0.0    -2.762655    1.348431
    C    0.0    -0.096    1.543369
    C    0.0    0.348    -1.339189
    C    0.0    1.388055    0.887065
    C    0.0    1.333471    -0.6648040000000001
    C    -0.0    -1.1720549999999998    0.623065
    C    0.0    -1.1174709999999999    -0.640804
    H    0.0    2.602071    2.431647
    H    0.0    4.486752999999999    0.9716889999999999
    H    -0.0    4.537262000000001    -1.452349
    H    0.0    2.4135500000000003    -2.598059
    H    0.0    0.3    -2.414266
    H    0.0    -2.19755    -2.406059
    H    0.0    -4.561262    -1.4043489999999998
    H    0.0    -4.918753    1.1396890000000002
    H    0.0    -2.722071    2.431647
    H    -0.859585    -0.528    2.2357869999999997
    H    0.859585    -0.528    2.2357869999999997

