%NProcShared=48
%mem = 190GB
#n M062X/6-311++G(d,p) TD(NStates=1) EmpiricalDispersion=GD3 SP
 
 SP_8

1 1
    C    0.0    2.364655    1.360431
    C    0.0    3.557508    0.6079889999999999
    C    0.0    3.6118609999999998    -0.84183
    C    -0.0    2.6231560000000003    -1.471538
    C    0.0    -2.303156    -1.343538
    C    -0.0    -3.755861    -0.58583
    C    -0.0    -3.845508    0.735989
    C    0.0    -2.620655    1.360431
    C    0.0    -0.064    1.453369
    C    0.0    0.23199999999999998    -1.429189
    C    -0.0    1.334055    0.765065
    C    -0.0    1.309471    -0.738804
    C    0.0    -1.1900549999999999    0.5890650000000001
    C    0.0    -1.165471    -0.722804
    H    0.0    2.448071    2.443647
    H    0.0    4.4927529999999996    1.155689
    H    0.0    4.601262    -1.288349
    H    -0.0    2.53955    -2.554059
    H    0.0    0.2    -2.510266
    H    0.0    -2.39555    -2.426059
    H    0.0    -4.617262    -1.256349
    H    -0.0    -4.780753    1.267689
    H    0.0    -2.528071    2.443647
    H    -0.859585    -0.352    2.145787
    H    0.859585    -0.352    2.145787

