%NProcShared=48
%mem = 190GB
#n M062X/6-311++G(d,p) TD(NStates=1) EmpiricalDispersion=GD3 SP
 
 SP_-14

1 1
    C    -0.0    2.6386550000000004    1.372431
    C    0.0    3.917508    0.8859889999999999
    C    0.0    3.8398609999999995    -0.3878299999999999
    C    0.0    2.2551560000000004    -1.2835379999999998
    C    0.0    -2.815156    -1.507538
    C    0.0    -3.5878609999999997    -0.83583
    C    0.0    -3.4135079999999998    0.6619889999999999
    C    0.0    -2.190655    1.372431
    C    0.0    0.11200000000000002    1.3633689999999998
    C    0.0    -0.40599999999999997    -1.5191890000000001
    C    0.0    1.1180549999999998    0.445065
    C    0.0    1.1234709999999999    -0.794804
    C    0.0    -1.370055    0.7530650000000001
    C    0.0    -1.375471    -0.822804
    H    -0.0    2.384071    2.455647
    H    0.0    4.822753    1.465689
    H    0.0    4.683262    -1.088349
    H    0.0    2.50355    -2.366059
    H    0.0    -0.35    -2.606266
    H    0.0    -2.75555    -2.590059
    H    -0.0    -4.655262    -1.144349
    H    0.0    -4.318753    1.2696889999999998
    H    0.0    -2.2440710000000004    2.455647
    H    -0.859585    0.616    2.055787
    H    0.859585    0.616    2.055787

