%NProcShared=48
%mem = 190GB
#n M062X/6-311++G(d,p) TD(NStates=1) EmpiricalDispersion=GD3 SP
 
 SP_0

1 1
    C    0.0    2.518655    1.356431
    C    0.0    3.713508    0.6379889999999999
    C    -0.0    3.673861    -0.74783
    C    0.0    2.439156    -1.411538
    C    0.0    -2.439156    -1.411538
    C    0.0    -3.673861    -0.74783
    C    0.0    -3.713508    0.6379889999999999
    C    -0.0    -2.518655    1.356431
    C    0.0    0.0    1.483369
    C    0.0    0.0    -1.399189
    C    0.0    1.268055    0.703065
    C    0.0    1.233471    -0.704804
    C    -0.0    -1.268055    0.703065
    C    0.0    -1.233471    -0.704804
    H    0.0    2.546071    2.439647
    H    0.0    4.658753    1.159689
    H    -0.0    4.589262000000001    -1.324349
    H    0.0    2.4135500000000003    -2.494059
    H    0.0    0.0    -2.478266
    H    0.0    -2.4135500000000003    -2.494059
    H    0.0    -4.589262000000001    -1.324349
    H    0.0    -4.658753    1.159689
    H    0.0    -2.546071    2.439647
    H    -0.859585    0.0    2.1757869999999997
    H    0.859585    -0.0    2.1757869999999997

