%NProcShared=48
%mem = 190GB
#n M062X/6-311++G(d,p) TD(NStates=1) EmpiricalDispersion=GD3 SP
 
 SP_-12

1 1
    C    0.0    2.710655    1.356431
    C    -0.0    3.9295080000000002    0.7339889999999999
    C    0.0    3.781861    -0.55583
    C    0.0    2.199156    -1.3155379999999999
    C    -0.0    -2.6791560000000003    -1.507538
    C    0.0    -3.565861    -0.9398299999999999
    C    0.0    -3.497508    0.5419889999999999
    C    0.0    -2.3266549999999997    1.356431
    C    -0.0    0.096    1.483369
    C    0.0    -0.348    -1.399189
    C    0.0    1.1600549999999998    0.571065
    C    0.0    1.1254709999999999    -0.692804
    C    0.0    -1.376055    0.8350650000000001
    C    -0.0    -1.341471    -0.716804
    H    0.0    2.606071    2.439647
    H    -0.0    4.874753    1.243689
    H    0.0    4.601262    -1.300349
    H    0.0    2.30555    -2.398059
    H    0.0    -0.3    -2.478266
    H    -0.0    -2.5215500000000004    -2.590059
    H    0.0    -4.577262000000001    -1.348349
    H    0.0    -4.442753    1.075689
    H    -0.0    -2.486071    2.439647
    H    -0.859585    0.528    2.1757869999999997
    H    0.859585    0.528    2.1757869999999997

