%NProcShared=48
%mem = 190GB
#n M062X/6-311++G(d,p) TD(NStates=1) EmpiricalDispersion=GD3 SP
 
 SP_10

1 1
    C    0.0    2.384655    1.352431
    C    0.0    3.545508    0.523989
    C    -0.0    3.573861    -0.94183
    C    0.0    2.6151560000000003    -1.495538
    C    0.0    -2.215156    -1.335538
    C    0.0    -3.7538609999999997    -0.6218299999999999
    C    0.0    -3.905508    0.683989
    C    -0.0    -2.7046550000000003    1.352431
    C    0.0    -0.08    1.513369
    C    0.0    0.29    -1.369189
    C    0.0    1.364055    0.8390650000000001
    C    0.0    1.319471    -0.688804
    C    -0.0    -1.1840549999999999    0.6190650000000001
    C    0.0    -1.139471    -0.668804
    H    0.0    2.5540710000000004    2.435647
    H    0.0    4.500753    1.0376889999999999
    H    -0.0    4.559262    -1.396349
    H    0.0    2.44955    -2.578059
    H    0.0    0.25    -2.446266
    H    0.0    -2.26955    -2.418059
    H    0.0    -4.579262    -1.356349
    H    0.0    -4.860752999999999    1.177689
    H    0.0    -2.654071    2.435647
    H    -0.859585    -0.44000000000000006    2.205787
    H    0.859585    -0.44000000000000006    2.205787

