%NProcShared=48
%mem = 190GB
#n M062X/6-311++G(d,p) TD(NStates=1) EmpiricalDispersion=GD3 SP
 
 SP_-8

1 1
    C    0.0    2.6726550000000002    1.352431
    C    -0.0    3.869508    0.6679889999999999
    C    0.0    3.735861    -0.6538299999999999
    C    0.0    2.255156    -1.351538
    C    -0.0    -2.5751560000000002    -1.479538
    C    0.0    -3.5918609999999997    -0.9098299999999999
    C    0.0    -3.581508    0.5399889999999998
    C    0.0    -2.416655    1.352431
    C    -0.0    0.064    1.513369
    C    0.0    -0.23199999999999998    -1.369189
    C    0.0    1.2020549999999999    0.6410650000000001
    C    0.0    1.157471    -0.670804
    C    0.0    -1.346055    0.817065
    C    -0.0    -1.301471    -0.686804
    H    0.0    2.6440710000000003    2.435647
    H    -0.0    4.824752999999999    1.163689
    H    0.0    4.577262    -1.360349
    H    0.0    2.28755    -2.434059
    H    0.0    -0.2    -2.446266
    H    -0.0    -2.43155    -2.562059
    H    0.0    -4.561262    -1.392349
    H    0.0    -4.536752999999999    1.0516889999999999
    H    -0.0    -2.564071    2.435647
    H    -0.859585    0.352    2.205787
    H    0.859585    0.352    2.205787

