%NProcShared=48
%mem = 190GB
#n M062X/6-311++G(d,p) TD(NStates=1) EmpiricalDispersion=GD3 SP
 
 SP_14

1 1
    C    0.0    2.320655    1.352431
    C    0.0    3.473508    0.49198899999999995
    C    -0.0    3.537861    -1.00583
    C    0.0    2.695156    -1.527538
    C    0.0    -2.1351560000000003    -1.3035379999999999
    C    0.0    -3.7898609999999997    -0.5578299999999999
    C    0.0    -3.9775080000000003    0.715989
    C    -0.0    -2.7686550000000003    1.352431
    C    0.0    -0.11200000000000002    1.513369
    C    0.0    0.40599999999999997    -1.369189
    C    0.0    1.400055    0.8830650000000001
    C    0.0    1.355471    -0.692804
    C    -0.0    -1.1480549999999998    0.575065
    C    0.0    -1.1034709999999999    -0.664804
    H    0.0    2.5340710000000004    2.435647
    H    0.0    4.4287529999999995    1.0096889999999998
    H    -0.0    4.555262    -1.404349
    H    0.0    2.48555    -2.610059
    H    0.0    0.35    -2.446266
    H    0.0    -2.23355    -2.386059
    H    0.0    -4.583262    -1.348349
    H    0.0    -4.932752999999999    1.205689
    H    0.0    -2.674071    2.435647
    H    -0.859585    -0.616    2.205787
    H    0.859585    -0.616    2.205787

