%NProcShared=48
%mem = 190GB
#n M062X/6-311++G(d,p) TD(NStates=1) EmpiricalDispersion=GD3 SP
 
 SP_8

1 1
    C    0.0    2.442655    1.348431
    C    0.0    3.593508    0.5059889999999999
    C    -0.0    3.581861    -0.94383
    C    0.0    2.551156    -1.483538
    C    0.0    -2.231156    -1.355538
    C    0.0    -3.725861    -0.6878299999999999
    C    0.0    -3.881508    0.633989
    C    -0.0    -2.698655    1.348431
    C    0.0    -0.064    1.543369
    C    0.0    0.23199999999999998    -1.339189
    C    0.0    1.352055    0.843065
    C    0.0    1.297471    -0.6608040000000001
    C    -0.0    -1.2080549999999999    0.667065
    C    0.0    -1.153471    -0.644804
    H    0.0    2.622071    2.431647
    H    0.0    4.558752999999999    0.9996889999999999
    H    -0.0    4.541262000000001    -1.4443489999999999
    H    0.0    2.3775500000000003    -2.566059
    H    0.0    0.2    -2.414266
    H    0.0    -2.23355    -2.438059
    H    0.0    -4.557262000000001    -1.4123489999999999
    H    0.0    -4.846753    1.1116890000000001
    H    0.0    -2.702071    2.431647
    H    -0.859585    -0.352    2.2357869999999997
    H    0.859585    -0.352    2.2357869999999997

