%NProcShared=48
%mem = 190GB
#n M062X/6-311++G(d,p) TD(NStates=1) EmpiricalDispersion=GD3 SP
 
 SP_-14

1 1
    C    0.0    2.794655    1.348431
    C    -0.0    3.9895080000000003    0.681989
    C    0.0    3.779861    -0.59183
    C    0.0    2.1111560000000003    -1.3075379999999999
    C    -0.0    -2.671156    -1.531538
    C    0.0    -3.527861    -1.03983
    C    0.0    -3.485508    0.457989
    C    0.0    -2.3466549999999997    1.348431
    C    -0.0    0.11200000000000002    1.543369
    C    0.0    -0.40599999999999997    -1.339189
    C    0.0    1.1540549999999998    0.601065
    C    0.0    1.0994709999999999    -0.638804
    C    0.0    -1.406055    0.909065
    C    -0.0    -1.351471    -0.6668040000000001
    H    0.0    2.732071    2.431647
    H    -0.0    4.954752999999999    1.1536890000000002
    H    0.0    4.563262000000001    -1.4003489999999998
    H    0.0    2.1795500000000003    -2.390059
    H    0.0    -0.35    -2.414266
    H    -0.0    -2.43155    -2.614059
    H    0.0    -4.535262    -1.456349
    H    0.0    -4.450753    0.9576889999999999
    H    -0.0    -2.5920710000000002    2.431647
    H    -0.859585    0.616    2.2357869999999997
    H    0.859585    0.616    2.2357869999999997

