%NProcShared=48
%mem = 190GB
#n M062X/6-311++G(d,p) TD(NStates=1) EmpiricalDispersion=GD3 SP
 
 SP_-10

1 1
    C    -0.0    2.5746550000000004    1.372431
    C    0.0    3.845508    0.8539889999999999
    C    0.0    3.8038609999999995    -0.45182999999999995
    C    0.0    2.335156    -1.3155379999999999
    C    0.0    -2.7351560000000004    -1.475538
    C    0.0    -3.6238609999999998    -0.77183
    C    0.0    -3.485508    0.693989
    C    0.0    -2.254655    1.372431
    C    0.0    0.08    1.3633689999999998
    C    0.0    -0.29    -1.5191890000000001
    C    0.0    1.1540549999999998    0.489065
    C    0.0    1.159471    -0.798804
    C    0.0    -1.334055    0.7090650000000001
    C    0.0    -1.339471    -0.818804
    H    -0.0    2.364071    2.455647
    H    0.0    4.750753    1.437689
    H    0.0    4.679262    -1.096349
    H    0.0    2.53955    -2.398059
    H    0.0    -0.25    -2.606266
    H    0.0    -2.71955    -2.558059
    H    -0.0    -4.659262    -1.136349
    H    0.0    -4.390753    1.2976889999999999
    H    0.0    -2.2640710000000004    2.455647
    H    -0.859585    0.44000000000000006    2.055787
    H    0.859585    0.44000000000000006    2.055787

