%NProcShared=48
%mem = 190GB
#n M062X/6-311++G(d,p) TD(NStates=1) EmpiricalDispersion=GD3 SP
 
 SP_-10

1 1
    C    0.0    2.678655    1.356431
    C    -0.0    3.893508    0.7179889999999999
    C    0.0    3.763861    -0.58783
    C    0.0    2.239156    -1.3315379999999999
    C    -0.0    -2.6391560000000003    -1.491538
    C    0.0    -3.583861    -0.90783
    C    0.0    -3.533508    0.557989
    C    0.0    -2.3586549999999997    1.356431
    C    -0.0    0.08    1.483369
    C    0.0    -0.29    -1.399189
    C    0.0    1.1780549999999999    0.5930650000000001
    C    0.0    1.143471    -0.694804
    C    0.0    -1.358055    0.813065
    C    -0.0    -1.323471    -0.714804
    H    0.0    2.596071    2.439647
    H    -0.0    4.838753    1.229689
    H    0.0    4.599262    -1.304349
    H    0.0    2.3235500000000004    -2.414059
    H    0.0    -0.25    -2.478266
    H    -0.0    -2.50355    -2.574059
    H    0.0    -4.579262000000001    -1.344349
    H    0.0    -4.478753    1.089689
    H    -0.0    -2.496071    2.439647
    H    -0.859585    0.44000000000000006    2.1757869999999997
    H    0.859585    0.44000000000000006    2.1757869999999997

