%NProcShared=48
%mem = 190GB
#n M062X/6-311++G(d,p) TD(NStates=1) EmpiricalDispersion=GD3 SP
 
 SP_2

1 1
    C    0.0    2.408655    1.368431
    C    0.0    3.641508    0.723989
    C    0.0    3.685861    -0.6778299999999999
    C    -0.0    2.551156    -1.415538
    C    0.0    -2.471156    -1.383538
    C    -0.0    -3.7218609999999996    -0.6138299999999999
    C    -0.0    -3.713508    0.755989
    C    0.0    -2.472655    1.368431
    C    0.0    -0.016    1.3933689999999999
    C    0.0    0.057999999999999996    -1.489189
    C    -0.0    1.268055    0.647065
    C    -0.0    1.263471    -0.7848040000000001
    C    0.0    -1.232055    0.603065
    C    0.0    -1.227471    -0.780804
    H    0.0    2.3620710000000003    2.451647
    H    0.0    4.5567530000000005    1.301689
    H    0.0    4.6472620000000004    -1.1723489999999999
    H    -0.0    2.59355    -2.498059
    H    0.0    0.05    -2.574266
    H    0.0    -2.5575500000000004    -2.466059
    H    0.0    -4.651262    -1.1643489999999999
    H    -0.0    -4.628753    1.3296890000000001
    H    0.0    -2.382071    2.451647
    H    -0.859585    -0.088    2.085787
    H    0.859585    -0.088    2.085787

