%NProcShared=48
%mem = 190GB
#n M062X/6-311++G(d,p) TD(NStates=1) EmpiricalDispersion=GD3 SP
 
 SP_4

1 1
    C    0.0    2.350655    1.372431
    C    0.0    3.593508    0.7419889999999999
    C    0.0    3.6778609999999996    -0.67583
    C    -0.0    2.6151560000000003    -1.427538
    C    0.0    -2.455156    -1.363538
    C    -0.0    -3.7498609999999997    -0.5478299999999999
    C    -0.0    -3.737508    0.805989
    C    0.0    -2.4786550000000003    1.372431
    C    0.0    -0.032    1.3633689999999998
    C    0.0    0.11599999999999999    -1.5191890000000001
    C    -0.0    1.280055    0.6430650000000001
    C    -0.0    1.285471    -0.812804
    C    0.0    -1.2080549999999999    0.555065
    C    0.0    -1.213471    -0.804804
    H    0.0    2.294071    2.455647
    H    0.0    4.498753    1.339689
    H    0.0    4.665262    -1.124349
    H    -0.0    2.66555    -2.510059
    H    0.0    0.1    -2.606266
    H    0.0    -2.59355    -2.446059
    H    0.0    -4.673261999999999    -1.108349
    H    -0.0    -4.642753    1.395689
    H    0.0    -2.3340710000000002    2.455647
    H    -0.859585    -0.176    2.055787
    H    0.859585    -0.176    2.055787

