%NProcShared=48
%mem = 190GB
#n M062X/6-311++G(d,p) TD(NStates=1) EmpiricalDispersion=GD3 SP
 
 SP_12

1 1
    C    0.0    2.222655    1.372431
    C    0.0    3.449508    0.677989
    C    0.0    3.6058609999999995    -0.8038299999999999
    C    -0.0    2.7751560000000004    -1.491538
    C    0.0    -2.295156    -1.2995379999999999
    C    -0.0    -3.8218609999999997    -0.41983000000000004
    C    -0.0    -3.881508    0.8699889999999999
    C    0.0    -2.6066550000000004    1.372431
    C    0.0    -0.096    1.3633689999999998
    C    0.0    0.348    -1.5191890000000001
    C    -0.0    1.352055    0.7310650000000001
    C    -0.0    1.357471    -0.820804
    C    0.0    -1.1360549999999998    0.467065
    C    0.0    -1.141471    -0.796804
    H    0.0    2.254071    2.455647
    H    0.0    4.354753    1.2836889999999999
    H    0.0    4.657262    -1.140349
    H    -0.0    2.73755    -2.574059
    H    0.0    0.3    -2.606266
    H    0.0    -2.52155    -2.382059
    H    0.0    -4.681261999999999    -1.092349
    H    -0.0    -4.786753    1.451689
    H    0.0    -2.3740710000000003    2.455647
    H    -0.859585    -0.528    2.055787
    H    0.859585    -0.528    2.055787

