%NProcShared=48
%mem = 190GB
#n M062X/6-311++G(d,p) TD(NStates=1) EmpiricalDispersion=GD3 SP
 
 SP_-4

1 1
    C    -0.0    2.504655    1.368431
    C    0.0    3.749508    0.771989
    C    0.0    3.739861    -0.5818299999999998
    C    0.0    2.431156    -1.367538
    C    0.0    -2.5911560000000002    -1.431538
    C    0.0    -3.667861    -0.70983
    C    0.0    -3.605508    0.707989
    C    0.0    -2.376655    1.368431
    C    0.0    0.032    1.3933689999999999
    C    0.0    -0.11599999999999999    -1.489189
    C    0.0    1.2140549999999999    0.5810649999999999
    C    0.0    1.209471    -0.778804
    C    0.0    -1.286055    0.669065
    C    0.0    -1.281471    -0.7868040000000001
    H    -0.0    2.392071    2.451647
    H    0.0    4.664753    1.3436890000000001
    H    0.0    4.653262    -1.1603489999999999
    H    0.0    2.53955    -2.450059
    H    0.0    -0.1    -2.574266
    H    0.0    -2.6115500000000003    -2.514059
    H    -0.0    -4.645262000000001    -1.1763489999999999
    H    0.0    -4.520753    1.287689
    H    0.0    -2.352071    2.451647
    H    -0.859585    0.176    2.085787
    H    0.859585    0.176    2.085787

