%NProcShared=48
%mem = 190GB
#n M062X/6-311++G(d,p) TD(NStates=1) EmpiricalDispersion=GD3 SP
 
 SP_4

1 1
    C    0.0    2.480655    1.352431
    C    0.0    3.653508    0.5719889999999999
    C    -0.0    3.627861    -0.8458300000000001
    C    0.0    2.495156    -1.447538
    C    0.0    -2.335156    -1.383538
    C    0.0    -3.699861    -0.71783
    C    0.0    -3.797508    0.6359889999999999
    C    -0.0    -2.608655    1.352431
    C    0.0    -0.032    1.513369
    C    0.0    0.11599999999999999    -1.369189
    C    0.0    1.310055    0.7730650000000001
    C    0.0    1.265471    -0.682804
    C    -0.0    -1.238055    0.685065
    C    0.0    -1.193471    -0.674804
    H    0.0    2.5840710000000002    2.435647
    H    0.0    4.608752999999999    1.079689
    H    -0.0    4.565262000000001    -1.384349
    H    0.0    2.39555    -2.530059
    H    0.0    0.1    -2.446266
    H    0.0    -2.32355    -2.466059
    H    0.0    -4.573262    -1.368349
    H    0.0    -4.752752999999999    1.135689
    H    0.0    -2.6240710000000003    2.435647
    H    -0.859585    -0.176    2.205787
    H    0.859585    -0.176    2.205787

