%NProcShared=48
%mem = 190GB
#n M062X/6-311++G(d,p) TD(NStates=1) EmpiricalDispersion=GD3 SP
 
 SP_-10

1 1
    C    0.0    2.730655    1.348431
    C    -0.0    3.917508    0.6499889999999999
    C    0.0    3.743861    -0.6558299999999999
    C    0.0    2.191156    -1.339538
    C    -0.0    -2.5911560000000002    -1.499538
    C    0.0    -3.563861    -0.97583
    C    0.0    -3.557508    0.489989
    C    0.0    -2.4106549999999998    1.348431
    C    -0.0    0.08    1.543369
    C    0.0    -0.29    -1.339189
    C    0.0    1.1900549999999999    0.645065
    C    0.0    1.135471    -0.642804
    C    0.0    -1.370055    0.865065
    C    -0.0    -1.315471    -0.6628040000000001
    H    0.0    2.712071    2.431647
    H    -0.0    4.882752999999999    1.1256890000000002
    H    0.0    4.559262    -1.4083489999999999
    H    0.0    2.2155500000000004    -2.422059
    H    0.0    -0.25    -2.414266
    H    -0.0    -2.39555    -2.582059
    H    0.0    -4.539262000000001    -1.4483489999999999
    H    0.0    -4.522753    0.9856889999999999
    H    -0.0    -2.6120710000000003    2.431647
    H    -0.859585    0.44000000000000006    2.2357869999999997
    H    0.859585    0.44000000000000006    2.2357869999999997

