%NProcShared=48
%mem = 190GB
#n M062X/6-311++G(d,p) TD(NStates=1) EmpiricalDispersion=GD3 SP
 
 SP_-10

1 1
    C    -0.0    2.600655    1.368431
    C    0.0    3.857508    0.8199889999999999
    C    0.0    3.7938609999999997    -0.48582999999999993
    C    0.0    2.311156    -1.3195379999999999
    C    0.0    -2.7111560000000003    -1.479538
    C    0.0    -3.613861    -0.80583
    C    0.0    -3.497508    0.6599889999999999
    C    0.0    -2.280655    1.368431
    C    0.0    0.08    1.3933689999999999
    C    0.0    -0.29    -1.489189
    C    0.0    1.1600549999999998    0.515065
    C    0.0    1.155471    -0.772804
    C    0.0    -1.340055    0.735065
    C    0.0    -1.335471    -0.7928040000000001
    H    -0.0    2.422071    2.451647
    H    0.0    4.772753    1.3856890000000002
    H    0.0    4.659262    -1.1483489999999998
    H    0.0    2.4855500000000004    -2.402059
    H    0.0    -0.25    -2.574266
    H    0.0    -2.66555    -2.562059
    H    -0.0    -4.639262    -1.1883489999999999
    H    0.0    -4.412753    1.245689
    H    0.0    -2.322071    2.451647
    H    -0.859585    0.44000000000000006    2.085787
    H    0.859585    0.44000000000000006    2.085787

