%NProcShared=48
%mem = 190GB
#n M062X/6-311++G(d,p) TD(NStates=1) EmpiricalDispersion=GD3 SP
 
 SP_4

1 1
    C    0.0    2.506655    1.348431
    C    0.0    3.665508    0.5379889999999999
    C    -0.0    3.617861    -0.87983
    C    0.0    2.471156    -1.451538
    C    0.0    -2.311156    -1.387538
    C    0.0    -3.689861    -0.7518299999999999
    C    0.0    -3.809508    0.601989
    C    -0.0    -2.634655    1.348431
    C    0.0    -0.032    1.543369
    C    0.0    0.11599999999999999    -1.339189
    C    0.0    1.316055    0.799065
    C    0.0    1.261471    -0.656804
    C    -0.0    -1.244055    0.711065
    C    0.0    -1.189471    -0.648804
    H    0.0    2.642071    2.431647
    H    0.0    4.6307529999999995    1.027689
    H    -0.0    4.545262000000001    -1.4363489999999999
    H    0.0    2.3415500000000002    -2.534059
    H    0.0    0.1    -2.414266
    H    0.0    -2.26955    -2.470059
    H    0.0    -4.553262    -1.4203489999999999
    H    0.0    -4.774753    1.0836890000000001
    H    0.0    -2.682071    2.431647
    H    -0.859585    -0.176    2.2357869999999997
    H    0.859585    -0.176    2.2357869999999997

