%NProcShared=48
%mem = 190GB
#n M062X/6-311++G(d,p) TD(NStates=1) EmpiricalDispersion=GD3 SP
 
 SP_-4

1 1
    C    -0.0    2.5306550000000003    1.364431
    C    0.0    3.761508    0.737989
    C    0.0    3.7298609999999996    -0.6158299999999999
    C    0.0    2.407156    -1.371538
    C    0.0    -2.567156    -1.435538
    C    0.0    -3.6578609999999996    -0.74383
    C    0.0    -3.617508    0.673989
    C    0.0    -2.402655    1.364431
    C    0.0    0.032    1.4233689999999999
    C    0.0    -0.11599999999999999    -1.459189
    C    0.0    1.220055    0.607065
    C    0.0    1.205471    -0.752804
    C    0.0    -1.292055    0.695065
    C    0.0    -1.277471    -0.760804
    H    -0.0    2.4500710000000003    2.447647
    H    0.0    4.6867529999999995    1.291689
    H    0.0    4.633261999999999    -1.212349
    H    0.0    2.48555    -2.454059
    H    0.0    -0.1    -2.542266
    H    0.0    -2.55755    -2.518059
    H    -0.0    -4.625262    -1.228349
    H    0.0    -4.542752999999999    1.235689
    H    0.0    -2.4100710000000003    2.447647
    H    -0.859585    0.176    2.115787
    H    0.859585    0.176    2.115787

