%NProcShared=32
%mem = 128GB
#n M062X/6-311++G(d,p) TD(NStates=1) EmpiricalDispersion=GD3 SP
 
 SP_8

1 1
    C    0.0    2.4990550000000002    1.3612309999999999
    C    0.0    3.696708    0.6711889999999999
    C    -0.0    3.682261    -0.71463
    C    -0.0    2.464756    -1.409938
    C    0.0    -2.4615560000000003    -1.405138
    C    -0.0    -3.6854609999999997    -0.7130299999999999
    C    0.0    -3.706308    0.672789
    C    0.0    -2.486255    1.359631
    C    0.0    -0.0064    1.453369
    C    0.0    -0.0128    -1.429189
    C    0.0    1.266055    0.665065
    C    -0.0    1.244671    -0.716404
    C    -0.0    -1.258055    0.689065
    C    0.0    -1.230271    -0.745204
    H    0.0    2.463271    2.443647
    H    0.0    4.623952999999999    1.223689
    H    -0.0    4.5980620000000005    -1.288349
    H    0.0    2.49555    -2.491659
    H    0.0    0.012    -2.510266
    H    0.0    -2.43955    -2.488459
    H    0.0    -4.620462    -1.256349
    H    -0.0    -4.649553    1.199689
    H    0.0    -2.512871    2.443647
    H    -0.859585    -0.0208    2.145787
    H    0.859585    -0.0208    2.145787

