%NProcShared=32
%mem = 128GB
#n M062X/6-311++G(d,p) TD(NStates=1) EmpiricalDispersion=GD3 SP
 
 SP_16

1 1
    C    0.0    2.476655    1.362031
    C    0.0    3.659508    0.6559889999999999
    C    -0.0    3.6644609999999997    -0.7442300000000001
    C    -0.0    2.5023560000000002    -1.4267379999999998
    C    0.0    -2.423956    -1.388338
    C    -0.0    -3.703261    -0.6834299999999999
    C    0.0    -3.743508    0.687989
    C    0.0    -2.508655    1.358831
    C    0.0    -0.027200000000000002    1.453369
    C    0.0    0.026599999999999995    -1.429189
    C    0.0    1.286255    0.672865
    C    -0.0    1.268071    -0.703804
    C    -0.0    -1.237855    0.681265
    C    0.0    -1.206871    -0.757804
    H    0.0    2.4294710000000004    2.443647
    H    0.0    4.578753    1.223089
    H    -0.0    4.585062    -1.307949
    H    0.0    2.53975    -2.5076590000000003
    H    0.0    0.069    -2.510266
    H    0.0    -2.39535    -2.4724589999999997
    H    0.0    -4.633462000000001    -1.2367489999999999
    H    -0.0    -4.6947529999999995    1.200289
    H    0.0    -2.546671    2.443647
    H    -0.859585    -0.12079999999999999    2.145787
    H    0.859585    -0.12079999999999999    2.145787

