%NProcShared=32
%mem = 128GB
#n M062X/6-311++G(d,p) TD(NStates=1) EmpiricalDispersion=GD3 SP
 
 SP_8

1 1
    C    0.0    2.4734550000000004    1.3612309999999999
    C    0.0    3.667908    0.6583889999999999
    C    -0.0    3.667861    -0.7402299999999999
    C    -0.0    2.496756    -1.4227379999999998
    C    0.0    -2.4295560000000003    -1.392338
    C    -0.0    -3.699861    -0.68743
    C    0.0    -3.735108    0.685589
    C    0.0    -2.5118549999999997    1.359631
    C    0.0    -0.019200000000000002    1.453369
    C    0.0    0.0336    -1.429189
    C    0.0    1.280455    0.682665
    C    -0.0    1.259071    -0.7180040000000001
    C    -0.0    -1.243655    0.6714650000000001
    C    0.0    -1.215871    -0.7436039999999999
    H    0.0    2.455271    2.443647
    H    0.0    4.595152999999999    1.212489
    H    -0.0    4.596462000000001    -1.291549
    H    0.0    2.5099500000000003    -2.5044589999999998
    H    0.0    0.052000000000000005    -2.510266
    H    0.0    -2.42515    -2.4756590000000003
    H    0.0    -4.622062    -1.2531489999999998
    H    -0.0    -4.678353    1.210889
    H    0.0    -2.520871    2.443647
    H    -0.859585    -0.0912    2.145787
    H    0.859585    -0.0912    2.145787

