%NProcShared=32
%mem = 128GB
#n M062X/6-311++G(d,p) TD(NStates=1) EmpiricalDispersion=GD3 SP
 
 SP_4

1 1
    C    0.0    2.4702550000000003    1.360831
    C    0.0    3.670308    0.658789
    C    -0.0    3.6686609999999997    -0.7398299999999999
    C    -0.0    2.495956    -1.421538
    C    0.0    -2.430356    -1.393538
    C    -0.0    -3.699061    -0.68783
    C    0.0    -3.732708    0.6851889999999999
    C    0.0    -2.515055    1.360031
    C    0.0    -0.016    1.453369
    C    0.0    0.039999999999999994    -1.429189
    C    0.0    1.278455    0.688665
    C    -0.0    1.255471    -0.7252040000000001
    C    -0.0    -1.245655    0.6654650000000001
    C    0.0    -1.219471    -0.736404
    H    0.0    2.467671    2.443647
    H    0.0    4.601552999999999    1.206489
    H    -0.0    4.602062    -1.283549
    H    0.0    2.49595    -2.503659
    H    0.0    0.046    -2.510266
    H    0.0    -2.43915    -2.476459
    H    0.0    -4.616462    -1.2611489999999999
    H    -0.0    -4.671953    1.216889
    H    0.0    -2.508471    2.443647
    H    -0.859585    -0.08080000000000001    2.145787
    H    0.859585    -0.08080000000000001    2.145787

