%NProcShared=32
%mem = 128GB
#n M062X/6-311++G(d,p) TD(NStates=1) EmpiricalDispersion=GD3 SP
 
 SP_10

1 1
    C    0.0    2.497455    1.3614309999999998
    C    0.0    3.691908    0.6693889999999999
    C    -0.0    3.6800610000000002    -0.71803
    C    -0.0    2.469156    -1.412138
    C    0.0    -2.4571560000000003    -1.402938
    C    -0.0    -3.6876609999999994    -0.70963
    C    0.0    -3.711108    0.674589
    C    0.0    -2.487855    1.359431
    C    0.0    -0.009600000000000001    1.453369
    C    0.0    -0.0102    -1.429189
    C    0.0    1.2688549999999998    0.664265
    C    -0.0    1.248271    -0.713004
    C    -0.0    -1.255255    0.6898650000000001
    C    0.0    -1.226671    -0.748604
    H    0.0    2.456071    2.443647
    H    0.0    4.617153    1.2252889999999999
    H    -0.0    4.5950619999999995    -1.292749
    H    0.0    2.50435    -2.4936589999999996
    H    0.0    0.02    -2.510266
    H    0.0    -2.43075    -2.4864590000000004
    H    0.0    -4.623462000000001    -1.251949
    H    -0.0    -4.656352999999999    1.1980890000000002
    H    0.0    -2.520071    2.443647
    H    -0.859585    -0.034800000000000005    2.145787
    H    0.859585    -0.034800000000000005    2.145787

