%NProcShared=32
%mem = 128GB
#n M062X/6-311++G(d,p) TD(NStates=1) EmpiricalDispersion=GD3 SP
 
 SP_8

1 1
    C    0.0    2.4702550000000003    1.3612309999999999
    C    0.0    3.664308    0.656789
    C    -0.0    3.666061    -0.74343
    C    -0.0    2.500756    -1.4243379999999999
    C    0.0    -2.4255560000000003    -1.390738
    C    -0.0    -3.7016609999999996    -0.6842299999999999
    C    0.0    -3.738708    0.6871889999999999
    C    0.0    -2.515055    1.359631
    C    0.0    -0.0208    1.453369
    C    0.0    0.0394    -1.429189
    C    0.0    1.282255    0.6848650000000001
    C    -0.0    1.260871    -0.7182040000000001
    C    -0.0    -1.241855    0.669265
    C    0.0    -1.214071    -0.743404
    H    0.0    2.4542710000000003    2.443647
    H    0.0    4.591552999999999    1.211089
    H    -0.0    4.596262    -1.291949
    H    0.0    2.51175    -2.506059
    H    0.0    0.056999999999999995    -2.510266
    H    0.0    -2.42335    -2.474059
    H    0.0    -4.622262    -1.252749
    H    -0.0    -4.681953    1.212289
    H    0.0    -2.521871    2.443647
    H    -0.859585    -0.09999999999999999    2.145787
    H    0.859585    -0.09999999999999999    2.145787

