%NProcShared=32
%mem = 128GB
#n M062X/6-311++G(d,p) TD(NStates=1) EmpiricalDispersion=GD3 SP
 
 SP_16

1 1
    C    0.0    2.502255    1.362031
    C    0.0    3.688308    0.6687889999999999
    C    -0.0    3.678861    -0.71863
    C    -0.0    2.470356    -1.413938
    C    0.0    -2.455956    -1.401138
    C    -0.0    -3.6888609999999997    -0.7090299999999999
    C    0.0    -3.714708    0.675189
    C    0.0    -2.4830550000000002    1.358831
    C    0.0    -0.014400000000000001    1.453369
    C    0.0    -0.0198    -1.429189
    C    0.0    1.271855    0.655265
    C    -0.0    1.253671    -0.7022039999999999
    C    -0.0    -1.252255    0.6988650000000001
    C    0.0    -1.221271    -0.7594040000000001
    H    0.0    2.4374710000000004    2.443647
    H    0.0    4.607553    1.234289
    H    -0.0    4.586662    -1.304749
    H    0.0    2.52535    -2.494859
    H    0.0    0.029    -2.510266
    H    0.0    -2.4097500000000003    -2.485259
    H    0.0    -4.631862000000001    -1.239949
    H    -0.0    -4.665952999999999    1.189089
    H    0.0    -2.538671    2.443647
    H    -0.859585    -0.0504    2.145787
    H    0.859585    -0.0504    2.145787

