%NProcShared=32
%mem = 128GB
#n M062X/6-311++G(d,p) TD(NStates=1) EmpiricalDispersion=GD3 SP
 
 SP_10

1 1
    C    0.0    2.494255    1.3614309999999998
    C    0.0    3.688308    0.667789
    C    -0.0    3.678261    -0.7212299999999999
    C    -0.0    2.473156    -1.413738
    C    0.0    -2.4531560000000003    -1.401338
    C    -0.0    -3.6894609999999997    -0.70643
    C    0.0    -3.714708    0.6761889999999999
    C    0.0    -2.4910550000000002    1.359431
    C    0.0    -0.0112    1.453369
    C    0.0    -0.004400000000000001    -1.429189
    C    0.0    1.2706549999999999    0.666465
    C    -0.0    1.250071    -0.713204
    C    -0.0    -1.253455    0.6876650000000001
    C    0.0    -1.224871    -0.7484040000000001
    H    0.0    2.4550710000000002    2.443647
    H    0.0    4.613553    1.223889
    H    -0.0    4.594862    -1.2931489999999999
    H    0.0    2.5061500000000003    -2.495259
    H    0.0    0.025    -2.510266
    H    0.0    -2.42895    -2.484859
    H    0.0    -4.623662    -1.251549
    H    -0.0    -4.659953    1.199489
    H    0.0    -2.521071    2.443647
    H    -0.859585    -0.0436    2.145787
    H    0.859585    -0.0436    2.145787

