%NProcShared=32
%mem = 128GB
#n M062X/6-311++G(d,p) TD(NStates=1) EmpiricalDispersion=GD3 SP
 
 SP_10

1 1
    C    0.0    2.500655    1.3614309999999998
    C    0.0    3.6955080000000002    0.670989
    C    -0.0    3.681861    -0.71483
    C    -0.0    2.465156    -1.4105379999999998
    C    0.0    -2.4611560000000003    -1.404538
    C    -0.0    -3.6858609999999996    -0.71283
    C    0.0    -3.707508    0.672989
    C    0.0    -2.484655    1.359431
    C    0.0    -0.008    1.453369
    C    0.0    -0.016    -1.429189
    C    0.0    1.2670549999999998    0.662065
    C    -0.0    1.2464709999999999    -0.712804
    C    -0.0    -1.257055    0.692065
    C    0.0    -1.228471    -0.748804
    H    0.0    2.457071    2.443647
    H    0.0    4.620753    1.226689
    H    -0.0    4.595262    -1.292349
    H    0.0    2.5025500000000003    -2.492059
    H    0.0    0.015    -2.510266
    H    0.0    -2.43255    -2.4880590000000002
    H    0.0    -4.623262    -1.252349
    H    -0.0    -4.652753    1.1966890000000001
    H    0.0    -2.5190710000000003    2.443647
    H    -0.859585    -0.026000000000000002    2.145787
    H    0.859585    -0.026000000000000002    2.145787

