%NProcShared=32
%mem = 128GB
#n M062X/6-311++G(d,p) TD(NStates=1) EmpiricalDispersion=GD3 SP
 
 SP_8

1 1
    C    0.0    2.4894550000000004    1.3612309999999999
    C    0.0    3.685908    0.6663889999999999
    C    -0.0    3.676861    -0.72423
    C    -0.0    2.476756    -1.4147379999999998
    C    0.0    -2.4495560000000003    -1.400338
    C    -0.0    -3.6908609999999995    -0.7034299999999999
    C    0.0    -3.717108    0.677589
    C    0.0    -2.4958549999999997    1.359631
    C    0.0    -0.0112    1.453369
    C    0.0    0.004599999999999998    -1.429189
    C    0.0    1.271455    0.6716650000000001
    C    -0.0    1.2500710000000002    -0.7170040000000001
    C    -0.0    -1.2526549999999999    0.682465
    C    0.0    -1.2248709999999998    -0.7446039999999999
    H    0.0    2.460271    2.443647
    H    0.0    4.613153    1.219489
    H    -0.0    4.597462    -1.289549
    H    0.0    2.50095    -2.4964589999999998
    H    0.0    0.027    -2.510266
    H    0.0    -2.4341500000000003    -2.4836590000000003
    H    0.0    -4.621062    -1.2551489999999998
    H    -0.0    -4.660353    1.203889
    H    0.0    -2.515871    2.443647
    H    -0.859585    -0.0472    2.145787
    H    0.859585    -0.0472    2.145787

