%NProcShared=32
%mem = 128GB
#n M062X/6-311++G(d,p) TD(NStates=1) EmpiricalDispersion=GD3 SP
 
 SP_4

1 1
    C    0.0    2.489455    1.360831
    C    0.0    3.6919079999999997    0.668389
    C    -0.0    3.679461    -0.7206299999999999
    C    -0.0    2.471956    -1.4119380000000001
    C    0.0    -2.454356    -1.4031379999999998
    C    -0.0    -3.688261    -0.70703
    C    0.0    -3.7111080000000003    0.6755889999999999
    C    0.0    -2.495855    1.360031
    C    0.0    -0.0064    1.453369
    C    0.0    0.005199999999999999    -1.429189
    C    0.0    1.267655    0.675465
    C    -0.0    1.244671    -0.724004
    C    -0.0    -1.2564549999999999    0.6786650000000001
    C    0.0    -1.230271    -0.737604
    H    0.0    2.4736710000000004    2.443647
    H    0.0    4.623152999999999    1.214889
    H    -0.0    4.603262    -1.2811489999999999
    H    0.0    2.48515    -2.494059
    H    0.0    0.016    -2.510266
    H    0.0    -2.4499500000000003    -2.486059
    H    0.0    -4.615262    -1.263549
    H    -0.0    -4.650353    1.208489
    H    0.0    -2.502471    2.443647
    H    -0.859585    -0.028    2.145787
    H    0.859585    -0.028    2.145787

