%NProcShared=32
%mem = 128GB
#n M062X/6-311++G(d,p) TD(NStates=1) EmpiricalDispersion=GD3 SP
 
 SP_10

1 1
    C    0.0    2.471855    1.3614309999999998
    C    0.0    3.6631080000000003    0.656589
    C    -0.0    3.665661    -0.74363
    C    -0.0    2.501156    -1.4249379999999998
    C    0.0    -2.4251560000000003    -1.390138
    C    -0.0    -3.7020609999999996    -0.6840299999999999
    C    0.0    -3.739908    0.6873889999999999
    C    0.0    -2.513455    1.359431
    C    0.0    -0.0224    1.453369
    C    0.0    0.036199999999999996    -1.429189
    C    0.0    1.2832549999999998    0.681865
    C    -0.0    1.2626709999999999    -0.714604
    C    -0.0    -1.240855    0.672265
    C    0.0    -1.212271    -0.747004
    H    0.0    2.448071    2.443647
    H    0.0    4.588353    1.214089
    H    -0.0    4.593462    -1.295949
    H    0.0    2.5187500000000003    -2.506459
    H    0.0    0.06    -2.510266
    H    0.0    -2.41635    -2.473659
    H    0.0    -4.625062000000001    -1.2487489999999999
    H    -0.0    -4.685153    1.209289
    H    0.0    -2.528071    2.443647
    H    -0.859585    -0.10519999999999999    2.145787
    H    0.859585    -0.10519999999999999    2.145787

