%NProcShared=32
%mem = 128GB
#n M062X/6-311++G(d,p) TD(NStates=1) EmpiricalDispersion=GD3 SP
 
 SP_2

1 1
    C    0.0    2.468655    1.360631
    C    0.0    3.671508    0.6589889999999999
    C    -0.0    3.6690609999999997    -0.7396299999999999
    C    -0.0    2.495556    -1.4209379999999998
    C    0.0    -2.430756    -1.394138
    C    -0.0    -3.698661    -0.68803
    C    0.0    -3.731508    0.684989
    C    0.0    -2.516655    1.360231
    C    0.0    -0.014400000000000001    1.453369
    C    0.0    0.043199999999999995    -1.429189
    C    0.0    1.2774549999999998    0.691665
    C    -0.0    1.253671    -0.728804
    C    -0.0    -1.246655    0.6624650000000001
    C    0.0    -1.221271    -0.732804
    H    0.0    2.473871    2.443647
    H    0.0    4.604753    1.2034889999999998
    H    -0.0    4.604862000000001    -1.279549
    H    0.0    2.4889500000000004    -2.503259
    H    0.0    0.043000000000000003    -2.510266
    H    0.0    -2.44615    -2.476859
    H    0.0    -4.613662    -1.2651489999999999
    H    -0.0    -4.668753    1.2198890000000002
    H    0.0    -2.5022710000000004    2.443647
    H    -0.859585    -0.0756    2.145787
    H    0.859585    -0.0756    2.145787

