%NProcShared=32
%mem = 128GB
#n M062X/6-311++G(d,p) TD(NStates=1) EmpiricalDispersion=GD3 SP
 
 SP_10

1 1
    C    0.0    2.478255    1.3614309999999998
    C    0.0    3.6703080000000003    0.659789
    C    -0.0    3.669261    -0.7372299999999999
    C    -0.0    2.493156    -1.421738
    C    0.0    -2.4331560000000003    -1.393338
    C    -0.0    -3.6984609999999996    -0.69043
    C    0.0    -3.7327079999999997    0.6841889999999999
    C    0.0    -2.5070550000000003    1.359431
    C    0.0    -0.019200000000000002    1.453369
    C    0.0    0.024599999999999997    -1.429189
    C    0.0    1.2796549999999998    0.677465
    C    -0.0    1.2590709999999998    -0.714204
    C    -0.0    -1.244455    0.6766650000000001
    C    0.0    -1.2158710000000001    -0.7474040000000001
    H    0.0    2.450071    2.443647
    H    0.0    4.595553    1.2168889999999999
    H    -0.0    4.593862    -1.2951489999999999
    H    0.0    2.51515    -2.503259
    H    0.0    0.05    -2.510266
    H    0.0    -2.41995    -2.476859
    H    0.0    -4.624662000000001    -1.249549
    H    -0.0    -4.677953    1.2064890000000001
    H    0.0    -2.5260710000000004    2.443647
    H    -0.859585    -0.08760000000000001    2.145787
    H    0.859585    -0.08760000000000001    2.145787

