%NProcShared=32
%mem = 128GB
#n M062X/6-311++G(d,p) TD(NStates=1) EmpiricalDispersion=GD3 SP
 
 SP_14

1 1
    C    0.0    2.497455    1.361831
    C    0.0    3.685908    0.667389
    C    -0.0    3.6774609999999996    -0.7216299999999999
    C    -0.0    2.4739560000000003    -1.414938
    C    0.0    -2.452356    -1.4001379999999999
    C    -0.0    -3.690261    -0.70603
    C    0.0    -3.717108    0.6765889999999999
    C    0.0    -2.487855    1.3590309999999999
    C    0.0    -0.014400000000000001    1.453369
    C    0.0    -0.010800000000000004    -1.429189
    C    0.0    1.2726549999999999    0.660465
    C    -0.0    1.253671    -0.706004
    C    -0.0    -1.251455    0.6936650000000001
    C    0.0    -1.221271    -0.755604
    H    0.0    2.4426710000000003    2.443647
    H    0.0    4.607152999999999    1.229889
    H    -0.0    4.589262000000001    -1.301149
    H    0.0    2.52015    -2.4960590000000002
    H    0.0    0.031    -2.510266
    H    0.0    -2.41495    -2.484059
    H    0.0    -4.629262    -1.243549
    H    -0.0    -4.666353    1.193489
    H    0.0    -2.533471    2.443647
    H    -0.859585    -0.054000000000000006    2.145787
    H    0.859585    -0.054000000000000006    2.145787

