%NProcShared=32
%mem = 128GB
#n M062X/6-311++G(d,p) TD(NStates=1) EmpiricalDispersion=GD3 SP
 
 SP_12

1 1
    C    0.0    2.499055    1.361631
    C    0.0    3.690708    0.6691889999999999
    C    -0.0    3.679661    -0.7182299999999999
    C    -0.0    2.4695560000000003    -1.412738
    C    0.0    -2.456756    -1.4023379999999999
    C    -0.0    -3.688061    -0.70943
    C    0.0    -3.712308    0.674789
    C    0.0    -2.4862550000000003    1.3592309999999999
    C    0.0    -0.0112    1.453369
    C    0.0    -0.013399999999999999    -1.429189
    C    0.0    1.269855    0.661265
    C    -0.0    1.250071    -0.709404
    C    -0.0    -1.254255    0.6928650000000001
    C    0.0    -1.224871    -0.752204
    H    0.0    2.4498710000000004    2.443647
    H    0.0    4.613953    1.228289
    H    -0.0    4.592262    -1.296749
    H    0.0    2.5113499999999997    -2.494059
    H    0.0    0.023    -2.510266
    H    0.0    -2.4237500000000005    -2.486059
    H    0.0    -4.6262620000000005    -1.247949
    H    -0.0    -4.659552999999999    1.195089
    H    0.0    -2.526271    2.443647
    H    -0.859585    -0.04    2.145787
    H    0.859585    -0.04    2.145787

