%NProcShared=32
%mem = 128GB
#n M062X/6-311++G(d,p) TD(NStates=1) EmpiricalDispersion=GD3 SP
 
 SP_18

1 1
    C    0.0    2.487855    1.362231
    C    0.0    3.669108    0.6605889999999999
    C    -0.0    3.6694609999999996    -0.73483
    C    -0.0    2.490756    -1.422538
    C    0.0    -2.435556    -1.3925379999999998
    C    -0.0    -3.698261    -0.69283
    C    0.0    -3.733908    0.683389
    C    0.0    -2.497455    1.358631
    C    0.0    -0.024    1.453369
    C    0.0    0.005999999999999998    -1.429189
    C    0.0    1.2818549999999997    0.663265
    C    -0.0    1.264471    -0.699604
    C    -0.0    -1.242255    0.6908650000000001
    C    0.0    -1.210471    -0.762004
    H    0.0    2.4262710000000003    2.443647
    H    0.0    4.586352999999999    1.230289
    H    -0.0    4.582862    -1.310749
    H    0.0    2.5413500000000004    -2.503259
    H    0.0    0.056999999999999995    -2.510266
    H    0.0    -2.39375    -2.476859
    H    0.0    -4.635662    -1.233949
    H    -0.0    -4.687153    1.193089
    H    0.0    -2.549871    2.443647
    H    -0.859585    -0.0996    2.145787
    H    0.859585    -0.0996    2.145787

