%NProcShared=32
%mem = 128GB
#n M062X/6-311++G(d,p) TD(NStates=1) EmpiricalDispersion=GD3 SP
 
 SP_2

1 1
    C    0.0    2.465455    1.360631
    C    0.0    3.667908    0.657389
    C    -0.0    3.667261    -0.74283
    C    -0.0    2.499556    -1.4225379999999999
    C    0.0    -2.426756    -1.392538
    C    -0.0    -3.700461    -0.6848299999999999
    C    0.0    -3.735108    0.6865889999999999
    C    0.0    -2.519855    1.360231
    C    0.0    -0.016    1.453369
    C    0.0    0.048999999999999995    -1.429189
    C    0.0    1.2792549999999998    0.6938650000000001
    C    -0.0    1.255471    -0.729004
    C    -0.0    -1.244855    0.660265
    C    0.0    -1.219471    -0.732604
    H    0.0    2.472871    2.443647
    H    0.0    4.601153    1.202089
    H    -0.0    4.604662    -1.279949
    H    0.0    2.4907500000000002    -2.504859
    H    0.0    0.048    -2.510266
    H    0.0    -2.44435    -2.475259
    H    0.0    -4.613862    -1.264749
    H    -0.0    -4.672352999999999    1.221289
    H    0.0    -2.5032710000000002    2.443647
    H    -0.859585    -0.08439999999999999    2.145787
    H    0.859585    -0.08439999999999999    2.145787

