%NProcShared=32
%mem = 128GB
#n M062X/6-311++G(d,p) TD(NStates=1) EmpiricalDispersion=GD3 SP
 
 SP_16

1 1
    C    0.0    2.486255    1.362031
    C    0.0    3.6703080000000003    0.6607889999999998
    C    -0.0    3.6698609999999996    -0.73463
    C    -0.0    2.4903560000000002    -1.421938
    C    0.0    -2.435956    -1.393138
    C    -0.0    -3.697861    -0.6930299999999999
    C    0.0    -3.7327079999999997    0.683189
    C    0.0    -2.4990550000000002    1.358831
    C    0.0    -0.0224    1.453369
    C    0.0    0.009199999999999996    -1.429189
    C    0.0    1.2808549999999999    0.666265
    C    -0.0    1.2626709999999999    -0.7032039999999999
    C    -0.0    -1.243255    0.6878650000000001
    C    0.0    -1.212271    -0.7584040000000001
    H    0.0    2.4324710000000005    2.443647
    H    0.0    4.5895529999999995    1.227289
    H    -0.0    4.585662    -1.306749
    H    0.0    2.5343500000000003    -2.502859
    H    0.0    0.054    -2.510266
    H    0.0    -2.40075    -2.477259
    H    0.0    -4.632862    -1.237949
    H    -0.0    -4.683953    1.196089
    H    0.0    -2.543671    2.443647
    H    -0.859585    -0.0944    2.145787
    H    0.859585    -0.0944    2.145787

