%NProcShared=32
%mem = 128GB
#n M062X/6-311++G(d,p) TD(NStates=1) EmpiricalDispersion=GD3 SP
 
 SP_18

1 1
    C    0.0    2.484655    1.362231
    C    0.0    3.665508    0.6589889999999999
    C    -0.0    3.667661    -0.73803
    C    -0.0    2.494756    -1.4241380000000001
    C    0.0    -2.431556    -1.3909379999999998
    C    -0.0    -3.700061    -0.68963
    C    0.0    -3.737508    0.684989
    C    0.0    -2.500655    1.358631
    C    0.0    -0.0256    1.453369
    C    0.0    0.011799999999999998    -1.429189
    C    0.0    1.2836549999999998    0.665465
    C    -0.0    1.266271    -0.699804
    C    -0.0    -1.240455    0.6886650000000001
    C    0.0    -1.208671    -0.761804
    H    0.0    2.425271    2.443647
    H    0.0    4.582752999999999    1.228889
    H    -0.0    4.582662    -1.311149
    H    0.0    2.5431500000000002    -2.504859
    H    0.0    0.062    -2.510266
    H    0.0    -2.39195    -2.475259
    H    0.0    -4.635862    -1.233549
    H    -0.0    -4.690753    1.1944890000000001
    H    0.0    -2.5508710000000003    2.443647
    H    -0.859585    -0.1084    2.145787
    H    0.859585    -0.1084    2.145787

