%NProcShared=32
%mem = 128GB
#n M062X/6-311++G(d,p) TD(NStates=1) EmpiricalDispersion=GD3 SP
 
 SP_4

1 1
    C    0.0    2.492655    1.360831
    C    0.0    3.695508    0.669989
    C    -0.0    3.681261    -0.7174299999999999
    C    -0.0    2.467956    -1.410338
    C    0.0    -2.458356    -1.4047379999999998
    C    -0.0    -3.6864609999999995    -0.71023
    C    0.0    -3.7075080000000002    0.673989
    C    0.0    -2.492655    1.360031
    C    0.0    -0.0048000000000000004    1.453369
    C    0.0    -0.0006000000000000007    -1.429189
    C    0.0    1.265855    0.673265
    C    -0.0    1.242871    -0.723804
    C    -0.0    -1.258255    0.680865
    C    0.0    -1.232071    -0.737804
    H    0.0    2.4746710000000003    2.443647
    H    0.0    4.626753    1.216289
    H    -0.0    4.6034619999999995    -1.280749
    H    0.0    2.4833499999999997    -2.4924589999999998
    H    0.0    0.011    -2.510266
    H    0.0    -2.4517500000000005    -2.4876590000000003
    H    0.0    -4.615062000000001    -1.263949
    H    -0.0    -4.6467529999999995    1.207089
    H    0.0    -2.501471    2.443647
    H    -0.859585    -0.019200000000000002    2.145787
    H    0.859585    -0.019200000000000002    2.145787

