%NProcShared=32
%mem = 128GB
#n M062X/6-311++G(d,p) TD(NStates=1) EmpiricalDispersion=GD3 SP
 
 SP_16

1 1
    C    0.0    2.489455    1.362031
    C    0.0    3.6739080000000004    0.6623889999999999
    C    -0.0    3.671661    -0.73143
    C    -0.0    2.4863560000000002    -1.4203379999999999
    C    0.0    -2.439956    -1.394738
    C    -0.0    -3.696061    -0.6962299999999999
    C    0.0    -3.7291079999999996    0.681589
    C    0.0    -2.495855    1.358831
    C    0.0    -0.0208    1.453369
    C    0.0    0.0033999999999999968    -1.429189
    C    0.0    1.2790549999999998    0.664065
    C    -0.0    1.2608709999999999    -0.703004
    C    -0.0    -1.245055    0.690065
    C    0.0    -1.2140710000000001    -0.7586040000000001
    H    0.0    2.4334710000000004    2.443647
    H    0.0    4.593153    1.2286890000000001
    H    -0.0    4.585862    -1.306349
    H    0.0    2.53255    -2.501259
    H    0.0    0.049    -2.510266
    H    0.0    -2.40255    -2.478859
    H    0.0    -4.632662000000001    -1.238349
    H    -0.0    -4.680352999999999    1.194689
    H    0.0    -2.542671    2.443647
    H    -0.859585    -0.08560000000000001    2.145787
    H    0.859585    -0.08560000000000001    2.145787

