%NProcShared=32
%mem = 128GB
#n M062X/6-311++G(d,p) TD(NStates=1) EmpiricalDispersion=GD3 SP
 
 SP_16

1 1
    C    0.0    2.505455    1.362031
    C    0.0    3.691908    0.6703889999999999
    C    -0.0    3.6806609999999997    -0.71543
    C    -0.0    2.466356    -1.4123379999999999
    C    0.0    -2.459956    -1.402738
    C    -0.0    -3.687061    -0.7122299999999999
    C    0.0    -3.711108    0.673589
    C    0.0    -2.479855    1.358831
    C    0.0    -0.0128    1.453369
    C    0.0    -0.0256    -1.429189
    C    0.0    1.270055    0.653065
    C    -0.0    1.251871    -0.702004
    C    -0.0    -1.254055    0.701065
    C    0.0    -1.223071    -0.7596040000000001
    H    0.0    2.4384710000000003    2.443647
    H    0.0    4.611153    1.235689
    H    -0.0    4.586862    -1.304349
    H    0.0    2.52355    -2.493259
    H    0.0    0.024    -2.510266
    H    0.0    -2.41155    -2.486859
    H    0.0    -4.631662    -1.240349
    H    -0.0    -4.6623529999999995    1.187689
    H    0.0    -2.537671    2.443647
    H    -0.859585    -0.0416    2.145787
    H    0.859585    -0.0416    2.145787

