%NProcShared=32
%mem = 128GB
#n M062X/6-311++G(d,p) TD(NStates=1) EmpiricalDispersion=GD3 SP
 
 SP_14

1 1
    C    0.0    2.500655    1.361831
    C    0.0    3.689508    0.668989
    C    -0.0    3.679261    -0.7184299999999999
    C    -0.0    2.4699560000000003    -1.413338
    C    0.0    -2.456356    -1.401738
    C    -0.0    -3.6884609999999998    -0.70923
    C    0.0    -3.713508    0.674989
    C    0.0    -2.484655    1.3590309999999999
    C    0.0    -0.012800000000000002    1.453369
    C    0.0    -0.016600000000000004    -1.429189
    C    0.0    1.2708549999999998    0.658265
    C    -0.0    1.251871    -0.705804
    C    -0.0    -1.253255    0.6958650000000001
    C    0.0    -1.223071    -0.755804
    H    0.0    2.443671    2.443647
    H    0.0    4.610753    1.2312889999999999
    H    -0.0    4.589462    -1.300749
    H    0.0    2.51835    -2.494459
    H    0.0    0.026000000000000002    -2.510266
    H    0.0    -2.4167500000000004    -2.485659
    H    0.0    -4.629062    -1.243949
    H    -0.0    -4.6627529999999995    1.1920890000000002
    H    0.0    -2.532471    2.443647
    H    -0.859585    -0.045200000000000004    2.145787
    H    0.859585    -0.045200000000000004    2.145787

