%NProcShared=32
%mem = 128GB
#n M062X/6-311++G(d,p) TD(NStates=1) EmpiricalDispersion=GD3 SP
 
 SP_12

1 1
    C    0.0    2.4958549999999997    1.361631
    C    0.0    3.687108    0.667589
    C    -0.0    3.6778609999999996    -0.7214299999999999
    C    -0.0    2.4735560000000003    -1.414338
    C    0.0    -2.452756    -1.4007379999999998
    C    -0.0    -3.689861    -0.70623
    C    0.0    -3.715908    0.6763889999999999
    C    0.0    -2.4894550000000004    1.3592309999999999
    C    0.0    -0.012799999999999999    1.453369
    C    0.0    -0.007599999999999999    -1.429189
    C    0.0    1.271655    0.663465
    C    -0.0    1.251871    -0.709604
    C    -0.0    -1.2524549999999999    0.6906650000000001
    C    0.0    -1.223071    -0.752004
    H    0.0    2.4488710000000005    2.443647
    H    0.0    4.610353    1.2268890000000001
    H    -0.0    4.592062    -1.2971489999999999
    H    0.0    2.51315    -2.4956590000000003
    H    0.0    0.027999999999999997    -2.510266
    H    0.0    -2.4219500000000003    -2.4844589999999998
    H    0.0    -4.626462    -1.247549
    H    -0.0    -4.663152999999999    1.196489
    H    0.0    -2.527271    2.443647
    H    -0.859585    -0.0488    2.145787
    H    0.859585    -0.0488    2.145787

