%NProcShared=32
%mem = 128GB
#n M062X/6-311++G(d,p) TD(NStates=1) EmpiricalDispersion=GD3 SP
 
 SP_6

1 1
    C    0.0    2.475055    1.3610309999999999
    C    0.0    3.672708    0.6601889999999999
    C    -0.0    3.670061    -0.73683
    C    -0.0    2.492356    -1.420538
    C    0.0    -2.4339560000000002    -1.3945379999999998
    C    -0.0    -3.6976609999999996    -0.6908299999999999
    C    0.0    -3.730308    0.683789
    C    0.0    -2.5102550000000003    1.359831
    C    0.0    -0.016    1.453369
    C    0.0    0.031    -1.429189
    C    0.0    1.2776549999999998    0.683465
    C    -0.0    1.255471    -0.7214039999999999
    C    -0.0    -1.246455    0.6706650000000001
    C    0.0    -1.219471    -0.7402040000000001
    H    0.0    2.462471    2.443647
    H    0.0    4.601953    1.2108889999999999
    H    -0.0    4.599462    -1.2871489999999999
    H    0.0    2.50115    -2.502459
    H    0.0    0.044000000000000004    -2.510266
    H    0.0    -2.4339500000000003    -2.477659
    H    0.0    -4.6190620000000004    -1.257549
    H    -0.0    -4.671552999999999    1.2124890000000001
    H    0.0    -2.5136710000000004    2.443647
    H    -0.859585    -0.0772    2.145787
    H    0.859585    -0.0772    2.145787

