%NProcShared=32
%mem = 128GB
#n M062X/6-311++G(d,p) TD(NStates=1) EmpiricalDispersion=GD3 SP
 
 SP_10

1 1
    C    0.0    2.4910550000000002    1.3614309999999998
    C    0.0    3.684708    0.6661889999999999
    C    -0.0    3.676461    -0.72443
    C    -0.0    2.477156    -1.4153379999999998
    C    0.0    -2.4491560000000003    -1.3997380000000001
    C    -0.0    -3.6912609999999995    -0.7032299999999999
    C    0.0    -3.718308    0.677789
    C    0.0    -2.494255    1.359431
    C    0.0    -0.012799999999999999    1.453369
    C    0.0    0.0013999999999999985    -1.429189
    C    0.0    1.272455    0.6686650000000001
    C    -0.0    1.251871    -0.713404
    C    -0.0    -1.251655    0.685465
    C    0.0    -1.223071    -0.748204
    H    0.0    2.454071    2.443647
    H    0.0    4.609953    1.222489
    H    -0.0    4.594662    -1.293549
    H    0.0    2.50795    -2.4968589999999997
    H    0.0    0.03    -2.510266
    H    0.0    -2.42715    -2.4832590000000003
    H    0.0    -4.623862000000001    -1.2511489999999998
    H    -0.0    -4.663552999999999    1.200889
    H    0.0    -2.5220710000000004    2.443647
    H    -0.859585    -0.0524    2.145787
    H    0.859585    -0.0524    2.145787

