%NProcShared=48
%mem = 190GB
#n M062X/6-311++G(d,p) TD(NStates=1) EmpiricalDispersion=GD3 SP
 
 SP_75

1 1
    C    -0.03225000000000011    2.4944550000000003    1.360431
    C    -0.03772500000000034    3.685908    0.671989
    C    -0.01079999999999981    3.6567109999999996    -0.71383
    C    0.03502499999999964    2.442831    -1.407538
    C    0.03517499999999962    -2.4425310000000002    -1.407538
    C    -0.009899999999999909    -3.6552109999999995    -0.71383
    C    -0.0363    -3.6853830000000003    0.671989
    C    -0.029400000000000093    -2.493555    1.360431
    C    -0.01965    -0.0032999999999999696    1.453369
    C    0.054900000000000004    0.00014999999999998348    -1.429189
    C    0.008100000000000107    1.2792299999999999    0.677065
    C    0.022799999999999987    1.2345460000000001    -0.730804
    C    0.008325000000000082    -1.279305    0.677065
    C    0.022200000000000053    -1.234996    -0.730804
    H    -0.011099999999999777    2.489571    2.443647
    H    -0.03832500000000061    4.624377999999999    1.211689
    H    0.006299999999999972    4.611212000000001    -1.272349
    H    0.0166499999999995    2.44775    -2.490059
    H    0.050625    7.500000000015827e-05    -2.510266
    H    0.01619999999999988    -2.4475249999999997    -2.490059
    H    0.00674999999999959    -4.609337    -1.272349
    H    -0.03660000000000063    -4.623253    1.211689
    H    -0.00780000000000014    -2.4885960000000003    2.443647
    H    -0.9315850000000001    -0.0007499999999999174    2.146612
    H    0.787585    -0.0007499999999999174    2.1449619999999996

