%NProcShared=48
%mem = 190GB
#n M062X/6-311++G(d,p) TD(NStates=1) EmpiricalDispersion=GD3 SP
 
 SP_75

1 1
    C    0.002850000000000019    2.491755    1.360431
    C    0.0014250000000003427    3.700983    0.671989
    C    0.0008999999999999009    3.6823609999999998    -0.71383
    C    0.00014999999999998348    2.4628560000000004    -1.407538
    C    -0.00014999999999998348    -2.463456    -1.407538
    C    -0.0008999999999999009    -3.685361    -0.71383
    C    -0.0014250000000003427    -3.702033    0.671989
    C    -0.002850000000000019    -2.493555    1.360431
    C    -7.500000000000041e-05    0.006599999999999939    1.453369
    C    0.0    -0.00029999999999996696    -1.429189
    C    0.00022499999999997522    1.26213    0.677065
    C    -0.0005999999999999339    1.237921    -0.730804
    C    -0.00022499999999997522    -1.2619799999999999    0.677065
    C    0.0005999999999999339    -1.237021    -0.730804
    H    0.0032999999999996366    2.487096    2.443647
    H    0.0017249999999999766    4.635628    1.211689
    H    0.00044999999999961737    4.607387000000001    -1.272349
    H    -0.00044999999999961737    2.4673249999999998    -2.490059
    H    0.0    -0.00015000000000031655    -2.510266
    H    0.00044999999999961737    -2.4677750000000005    -2.490059
    H    -0.00044999999999961737    -4.611136999999999    -1.272349
    H    -0.0017249999999999766    -4.637878    1.211689
    H    -0.0032999999999996366    -2.4890460000000005    2.443647
    H    -0.859585    0.0014999999999998348    2.144137
    H    0.859585    0.0014999999999998348    2.1474369999999996

