%NProcShared=48
%mem = 190GB
#n M062X/6-311++G(d,p) TD(NStates=1) EmpiricalDispersion=GD3 SP
 
 SP_-75

1 1
    C    0.008850000000000025    2.492655    1.360431
    C    0.011624999999999885    3.707058    0.671989
    C    0.0030000000000000027    3.693911    -0.71383
    C    -0.011774999999999869    2.470131    -1.407538
    C    -0.011624999999999885    -2.469831    -1.407538
    C    0.0038999999999999035    -3.692411    -0.71383
    C    0.013050000000000228    -3.706533    0.671989
    C    0.011700000000000044    -2.491755    1.360431
    C    0.0066    -0.0032999999999999696    1.453369
    C    -0.0183    0.00014999999999998348    -1.429189
    C    -0.002850000000000019    1.2562799999999998    0.677065
    C    -0.00720000000000004    1.238146    -0.730804
    C    -0.002625000000000044    -1.2563549999999999    0.677065
    C    -0.007799999999999974    -1.238596    -0.730804
    H    0.0015000000000001679    2.4882210000000002    2.443647
    H    0.011625000000000218    4.641628    1.211689
    H    -0.0023999999999997357    4.609862    -1.272349
    H    -0.005250000000000088    2.4743000000000004    -2.490059
    H    -0.016875    7.500000000015827e-05    -2.510266
    H    -0.005699999999999705    -2.474075    -2.490059
    H    -0.0019500000000001183    -4.6079870000000005    -1.272349
    H    0.013350000000000195    -4.640503    1.211689
    H    0.004799999999999804    -2.487246    2.443647
    H    -0.835585    -0.0007499999999999174    2.1466119999999997
    H    0.8835850000000001    -0.0007499999999999174    2.144962

