%NProcShared=48
%mem = 190GB
#n M062X/6-311++G(d,p) TD(NStates=1) EmpiricalDispersion=GD3 SP
 
 SP_50

1 1
    C    -0.009800000000000031    2.4929550000000003    1.360431
    C    -0.0121    3.696133    0.671989
    C    -0.0032999999999999696    3.674311    -0.71383
    C    0.011724999999999874    2.456281    -1.407538
    C    0.01167499999999988    -2.4563810000000004    -1.407538
    C    -0.0035999999999999366    -3.6748109999999996    -0.71383
    C    -0.012575000000000114    -3.6963079999999997    0.671989
    C    -0.010750000000000037    -2.493255    1.360431
    C    -0.006575    0.0010999999999999899    1.453369
    C    0.018299999999999997    -4.999999999999449e-05    -1.429189
    C    0.0027750000000000274    1.267805    0.677065
    C    0.007400000000000018    1.236646    -0.730804
    C    0.0027000000000000357    -1.26778    0.677065
    C    0.007599999999999996    -1.236496    -0.730804
    H    -0.0026000000000000467    2.488246    2.443647
    H    -0.01220000000000021    4.6322529999999995    1.211689
    H    0.0022499999999998632    4.609287    -1.272349
    H    0.00539999999999996    2.460875    -2.490059
    H    0.016875    -2.5000000000052758e-05    -2.510266
    H    0.005549999999999833    -2.4609500000000004    -2.490059
    H    0.0020999999999999908    -4.609912    -1.272349
    H    -0.012775000000000203    -4.6326279999999995    1.211689
    H    -0.0036999999999999256    -2.4885710000000003    2.443647
    H    -0.8835850000000001    0.00024999999999997247    2.1455119999999996
    H    0.835585    0.00024999999999997247    2.146062

