%NProcShared=48
%mem = 190GB
#n M062X/6-311++G(d,p) TD(NStates=1) EmpiricalDispersion=GD3 SP
 
 SP_0

1 1
    C    -0.007800000000000029    2.493255    1.360431
    C    -0.008700000000000152    3.698158    0.671989
    C    -0.0025999999999999357    3.678161    -0.71383
    C    0.007749999999999924    2.4587060000000003    -1.407538
    C    0.007849999999999913    -2.4585060000000003    -1.407538
    C    -0.0020000000000000018    -3.677161    -0.71383
    C    -0.007749999999999924    -3.697808    0.671989
    C    -0.005900000000000016    -2.492655    1.360431
    C    -0.00435    -0.0021999999999999797    1.453369
    C    0.012199999999999999    9.999999999998899e-05    -1.429189
    C    0.0017500000000000293    1.265855    0.677065
    C    0.005199999999999982    1.236721    -0.730804
    C    0.0019000000000000128    -1.265905    0.677065
    C    0.0048000000000000265    -1.237021    -0.730804
    H    -0.0031999999999998696    2.488621    2.443647
    H    -0.00890000000000013    4.634252999999999    1.211689
    H    0.0013000000000000789    4.610112    -1.272349
    H    0.0037999999999998035    2.4632000000000005    -2.490059
    H    0.01125    5.0000000000105516e-05    -2.510266
    H    0.0035000000000000586    -2.46305    -2.490059
    H    0.0015999999999998238    -4.608862    -1.272349
    H    -0.007750000000000146    -4.633502999999999    1.211689
    H    -0.001000000000000112    -2.487971    2.443647
    H    -0.8755850000000001    -0.0004999999999999449    2.146337
    H    0.843585    -0.0004999999999999449    2.145237

