%NProcShared=48
%mem = 190GB
#n M062X/6-311++G(d,p) TD(NStates=1) EmpiricalDispersion=GD3 SP
 
 SP_-25

1 1
    C    -0.008750000000000036    2.493555    1.360431
    C    -0.009175000000000266    3.6983330000000003    0.671989
    C    -0.0028999999999999027    3.678661    -0.71383
    C    0.007699999999999929    2.458806    -1.407538
    C    0.007899999999999907    -2.4584060000000005    -1.407538
    C    -0.0017000000000000348    -3.6766609999999997    -0.71383
    C    -0.007274999999999809    -3.697633    0.671989
    C    -0.00495000000000001    -2.492355    1.360431
    C    -0.004324999999999999    -0.0043999999999999595    1.453369
    C    0.0122    0.00019999999999997797    -1.429189
    C    0.0016750000000000376    1.26583    0.677065
    C    0.00539999999999996    1.2365709999999999    -0.730804
    C    0.0019750000000000045    -1.26593    0.677065
    C    0.0046000000000000485    -1.237171    -0.730804
    H    -0.0042999999999997485    2.4889460000000003    2.443647
    H    -0.009475000000000122    4.634627999999999    1.211689
    H    0.0011500000000002064    4.610737    -1.272349
    H    0.003949999999999676    2.4632750000000003    -2.490059
    H    0.011250000000000001    0.00010000000000021103    -2.510266
    H    0.003350000000000186    -2.4629749999999997    -2.490059
    H    0.0017499999999996962    -4.608237000000001    -1.272349
    H    -0.0071750000000001535    -4.633127999999999    1.211689
    H    9.999999999976694e-05    -2.4876460000000002    2.443647
    H    -0.8755850000000001    -0.0009999999999998899    2.1468869999999995
    H    0.843585    -0.0009999999999998899    2.1446870000000002

