%NProcShared=48
%mem = 190GB
#n M062X/6-311++G(d,p) TD(NStates=1) EmpiricalDispersion=GD3 SP
 
 SP_0

1 1
    C    -0.011700000000000044    2.493555    1.360431
    C    -0.013050000000000228    3.696483    0.671989
    C    -0.0038999999999999035    3.6753109999999998    -0.71383
    C    0.011624999999999885    2.456481    -1.407538
    C    0.011774999999999869    -2.4561810000000004    -1.407538
    C    -0.0030000000000000027    -3.6738109999999997    -0.71383
    C    -0.011624999999999885    -3.695958    0.671989
    C    -0.008850000000000025    -2.492655    1.360431
    C    -0.0065249999999999996    -0.0032999999999999696    1.453369
    C    0.0183    0.00014999999999998348    -1.429189
    C    0.002625000000000044    1.267755    0.677065
    C    0.007799999999999974    1.236346    -0.730804
    C    0.002850000000000019    -1.26783    0.677065
    C    0.00720000000000004    -1.236796    -0.730804
    H    -0.004799999999999804    2.4888960000000004    2.443647
    H    -0.013350000000000195    4.6330029999999995    1.211689
    H    0.0019500000000001183    4.610537    -1.272349
    H    0.005699999999999705    2.4610250000000002    -2.490059
    H    0.016875    7.500000000015827e-05    -2.510266
    H    0.005250000000000088    -2.4608    -2.490059
    H    0.0023999999999997357    -4.608662000000001    -1.272349
    H    -0.011625000000000218    -4.6318779999999995    1.211689
    H    -0.0015000000000001679    -2.487921    2.443647
    H    -0.8835850000000001    -0.0007499999999999174    2.1466119999999997
    H    0.835585    -0.0007499999999999174    2.144962

