%NProcShared=48
%mem = 190GB
#n M062X/6-311++G(d,p) TD(NStates=1) EmpiricalDispersion=GD3 SP
 
 SP_-100

1 1
    C    0.02740000000000009    2.491455    1.360431
    C    0.03290000000000015    3.715608    0.671989
    C    0.009199999999999875    3.708661    -0.71383
    C    -0.031199999999999672    2.4813560000000003    -1.407538
    C    -0.031199999999999672    -2.481356    -1.407538
    C    0.009199999999999875    -3.708661    -0.71383
    C    0.03290000000000015    -3.715608    0.671989
    C    0.02740000000000009    -2.491455    1.360431
    C    0.0175    0.0    1.453369
    C    -0.048799999999999996    0.0    -1.429189
    C    -0.007300000000000084    1.2467549999999998    0.677065
    C    -0.020000000000000018    1.239871    -0.730804
    C    -0.007300000000000084    -1.246755    0.677065
    C    -0.020000000000000018    -1.239871    -0.730804
    H    0.008399999999999963    2.487171    2.443647
    H    0.03330000000000055    4.6482529999999995    1.211689
    H    -0.005799999999999805    4.608362    -1.272349
    H    -0.014599999999999724    2.48525    -2.490059
    H    -0.045    0.0    -2.510266
    H    -0.014599999999999724    -2.48525    -2.490059
    H    -0.005799999999999805    -4.608362    -1.272349
    H    0.03330000000000055    -4.6482529999999995    1.211689
    H    0.008399999999999963    -2.487171    2.443647
    H    -0.795585    0.0    2.145787
    H    0.9235850000000001    0.0    2.145787

