%NProcShared=48
%mem = 190GB
#n M062X/6-311++G(d,p) TD(NStates=1) EmpiricalDispersion=GD3 SP
 
 SP_0

1 1
    C    -0.0039000000000000146    2.4929550000000003    1.360431
    C    -0.004350000000000076    3.699833    0.671989
    C    -0.0012999999999999678    3.681011    -0.71383
    C    0.003874999999999962    2.460931    -1.407538
    C    0.003924999999999956    -2.460831    -1.407538
    C    -0.0010000000000000009    -3.6805109999999996    -0.71383
    C    -0.003874999999999962    -3.699658    0.671989
    C    -0.002950000000000008    -2.492655    1.360431
    C    -0.002175    -0.0010999999999999899    1.453369
    C    0.0060999999999999995    4.999999999999449e-05    -1.429189
    C    0.0008750000000000147    1.263955    0.677065
    C    0.002599999999999991    1.237096    -0.730804
    C    0.0009500000000000064    -1.2639799999999999    0.677065
    C    0.0024000000000000132    -1.237246    -0.730804
    H    -0.0015999999999999348    2.488346    2.443647
    H    -0.004450000000000065    4.635503    1.211689
    H    0.0006500000000000394    4.609687    -1.272349
    H    0.0018999999999999018    2.4653750000000003    -2.490059
    H    0.005625    2.5000000000052758e-05    -2.510266
    H    0.0017500000000000293    -2.4653    -2.490059
    H    0.0007999999999999119    -4.609062    -1.272349
    H    -0.003875000000000073    -4.635128    1.211689
    H    -0.000500000000000056    -2.4880210000000003    2.443647
    H    -0.867585    -0.00024999999999997247    2.1460619999999997
    H    0.851585    -0.00024999999999997247    2.145512

