%NProcShared=48
%mem = 190GB
#n M062X/6-311++G(d,p) TD(NStates=1) EmpiricalDispersion=GD3 SP
 
 SP_25

1 1
    C    0.004850000000000021    2.492055    1.360431
    C    0.00482500000000019    3.703008    0.671989
    C    0.0015999999999999348    3.6862109999999997    -0.71383
    C    -0.0038249999999999673    2.465281    -1.407538
    C    -0.003974999999999951    -2.465581    -1.407538
    C    0.0007000000000000339    -3.6877109999999997    -0.71383
    C    0.0033999999999998476    -3.7035329999999997    0.671989
    C    0.0020000000000000018    -2.4929550000000003    1.360431
    C    0.0021499999999999996    0.0032999999999999696    1.453369
    C    -0.0060999999999999995    -0.00014999999999998348    -1.429189
    C    -0.0008000000000000229    1.2601799999999999    0.677065
    C    -0.002799999999999969    1.237996    -0.730804
    C    -0.0010249999999999981    -1.2601049999999998    0.677065
    C    -0.0022000000000000353    -1.237546    -0.730804
    H    0.0026999999999998137    2.487471    2.443647
    H    0.005025000000000057    4.637628    1.211689
    H    -0.000500000000000167    4.608212    -1.272349
    H    -0.0020499999999997742    2.4696499999999997    -2.490059
    H    -0.005625    -7.500000000015827e-05    -2.510266
    H    -0.0016000000000001569    -2.4698750000000005    -2.490059
    H    -0.0009499999999997844    -4.610087    -1.272349
    H    0.0033000000000000806    -4.6387529999999995    1.211689
    H    -0.0005999999999998229    -2.4884459999999997    2.443647
    H    -0.851585    0.0007499999999999174    2.144962
    H    0.867585    0.0007499999999999174    2.1466119999999997

