%NProcShared=48
%mem = 190GB
#n M062X/6-311++G(d,p) TD(NStates=1) EmpiricalDispersion=GD3 SP
 
 SP_-50

1 1
    C    0.013700000000000045    2.492055    1.360431
    C    0.016450000000000076    3.708558    0.671989
    C    0.0045999999999999375    3.696261    -0.71383
    C    -0.015599999999999836    2.472256    -1.407538
    C    -0.015599999999999836    -2.472256    -1.407538
    C    0.0045999999999999375    -3.696261    -0.71383
    C    0.016450000000000076    -3.708558    0.671989
    C    0.013700000000000045    -2.492055    1.360431
    C    0.00875    0.0    1.453369
    C    -0.024399999999999998    0.0    -1.429189
    C    -0.003650000000000042    1.2544049999999998    0.677065
    C    -0.010000000000000009    1.238671    -0.730804
    C    -0.003650000000000042    -1.2544049999999998    0.677065
    C    -0.010000000000000009    -1.238671    -0.730804
    H    0.0041999999999999815    2.4876210000000003    2.443647
    H    0.016650000000000276    4.6425030000000005    1.211689
    H    -0.0028999999999999027    4.608812    -1.272349
    H    -0.007299999999999862    2.4764    -2.490059
    H    -0.0225    0.0    -2.510266
    H    -0.007299999999999862    -2.4764    -2.490059
    H    -0.0028999999999999027    -4.608812    -1.272349
    H    0.016650000000000276    -4.642503    1.211689
    H    0.0041999999999999815    -2.487621    2.443647
    H    -0.827585    0.0    2.145787
    H    0.8915850000000001    0.0    2.145787

