%NProcShared=48
%mem = 190GB
#n M062X/6-311++G(d,p) TD(NStates=1) EmpiricalDispersion=GD3 SP
 
 SP_125

1 1
    C    -0.034250000000000114    2.494155    1.360431
    C    -0.04112500000000019    3.6838830000000002    0.671989
    C    -0.011499999999999844    3.6528609999999997    -0.71383
    C    0.03899999999999959    2.440406    -1.407538
    C    0.03899999999999959    -2.440406    -1.407538
    C    -0.011499999999999844    -3.6528609999999997    -0.71383
    C    -0.04112500000000019    -3.6838830000000002    0.671989
    C    -0.034250000000000114    -2.494155    1.360431
    C    -0.021875    0.0    1.453369
    C    0.061000000000000006    0.0    -1.429189
    C    0.009125000000000105    1.2811799999999998    0.677065
    C    0.025000000000000022    1.234471    -0.730804
    C    0.009125000000000105    -1.2811799999999998    0.677065
    C    0.025000000000000022    -1.234471    -0.730804
    H    -0.010499999999999954    2.4891960000000006    2.443647
    H    -0.04162500000000069    4.622377999999999    1.211689
    H    0.007249999999999757    4.610387    -1.272349
    H    0.018249999999999655    2.445425    -2.490059
    H    0.05625    0.0    -2.510266
    H    0.018249999999999655    -2.445425    -2.490059
    H    0.007249999999999757    -4.610387000000001    -1.272349
    H    -0.04162500000000069    -4.622377999999999    1.211689
    H    -0.010499999999999954    -2.489196    2.443647
    H    -0.9395850000000001    0.0    2.145787
    H    0.779585    0.0    2.145787

