%NProcShared=48
%mem = 190GB
#n M062X/6-311++G(d,p) TD(NStates=1) EmpiricalDispersion=GD3 SP
 
 SP_150

1 1
    C    -0.0020999999999999908    2.491455    1.360431
    C    -0.005849999999999467    3.697108    0.671989
    C    -0.0008000000000001339    3.6751609999999997    -0.71383
    C    0.00804999999999989    2.4581060000000003    -1.407538
    C    0.007549999999999946    -2.4591059999999993    -1.407538
    C    -0.0037999999999998035    -3.680161    -0.71383
    C    -0.010600000000000609    -3.698858    0.671989
    C    -0.011600000000000055    -2.4944550000000003    1.360431
    C    -0.0045000000000000005    0.010999999999999899    1.453369
    C    0.012200000000000003    -0.0004999999999999449    -1.429189
    C    0.0021999999999999797    1.2660049999999998    0.677065
    C    0.004000000000000115    1.2376209999999999    -0.730804
    C    0.0014500000000000624    -1.2657549999999997    0.677065
    C    0.005999999999999894    -1.2361210000000002    -0.730804
    H    0.0033999999999994035    2.4866710000000003    2.443647
    H    -0.005450000000000177    4.632003    1.211689
    H    0.0021999999999993136    4.606362000000001    -1.272349
    H    0.002900000000000569    2.4627499999999993    -2.490059
    H    0.011250000000000003    -0.0002500000000005276    -2.510266
    H    0.004399999999999293    -2.4635000000000007    -2.490059
    H    0.000700000000000589    -4.612612    -1.272349
    H    -0.011200000000000099    -4.635752999999999    1.211689
    H    -0.007599999999999385    -2.4899210000000003    2.443647
    H    -0.8755850000000001    0.0024999999999997247    2.1430369999999996
    H    0.843585    0.0024999999999997247    2.148537

