%NProcShared=48
%mem = 190GB
#n M062X/6-311++G(d,p) TD(NStates=1) EmpiricalDispersion=GD3 SP
 
 SP_-50

1 1
    C    0.01760000000000006    2.491755    1.360431
    C    0.02080000000000015    3.7102329999999997    0.671989
    C    0.005899999999999905    3.699111    -0.71383
    C    -0.019474999999999798    2.474481    -1.407538
    C    -0.019524999999999793    -2.4745809999999997    -1.407538
    C    0.005599999999999938    -3.699611    -0.71383
    C    0.020325000000000037    -3.710408    0.671989
    C    0.016650000000000054    -2.492055    1.360431
    C    0.010925    0.0010999999999999899    1.453369
    C    -0.0305    -4.999999999999449e-05    -1.429189
    C    -0.004525000000000057    1.2525049999999998    0.677065
    C    -0.0126    1.239046    -0.730804
    C    -0.0046000000000000485    -1.2524799999999998    0.677065
    C    -0.012400000000000022    -1.238896    -0.730804
    H    0.005799999999999916    2.4873460000000005    2.443647
    H    0.02110000000000034    4.643753    1.211689
    H    -0.003549999999999942    4.6083870000000005    -1.272349
    H    -0.009199999999999764    2.478575    -2.490059
    H    -0.028125    -2.5000000000052758e-05    -2.510266
    H    -0.009049999999999891    -2.47865    -2.490059
    H    -0.0036999999999998145    -4.609012    -1.272349
    H    0.02052500000000035    -4.644128    1.211689
    H    0.0047000000000000375    -2.487671    2.443647
    H    -0.819585    0.00024999999999997247    2.145512
    H    0.8995850000000001    0.00024999999999997247    2.1460619999999997

