%NProcShared=48
%mem = 190GB
#n M062X/6-311++G(d,p) TD(NStates=1) EmpiricalDispersion=GD3 SP
 
 SP_100

1 1
    C    -9.999999999998899e-05    2.491755    1.360431
    C    -0.002449999999999619    3.699133    0.671989
    C    -0.00010000000000010001    3.6790109999999996    -0.71383
    C    0.00407499999999994    2.460531    -1.407538
    C    0.0037249999999999783    -2.4612309999999997    -1.407538
    C    -0.0021999999999998687    -3.682511    -0.71383
    C    -0.005775000000000419    -3.700358    0.671989
    C    -0.006750000000000034    -2.493855    1.360431
    C    -0.002275000000000001    0.007699999999999929    1.453369
    C    0.006099999999999998    -0.00034999999999996145    -1.429189
    C    0.0011749999999999816    1.264055    0.677065
    C    0.0018000000000000793    1.2376960000000001    -0.730804
    C    0.0006500000000000394    -1.2638799999999997    0.677065
    C    0.003199999999999925    -1.2366460000000001    -0.730804
    H    0.0027999999999995806    2.4870460000000003    2.443647
    H    -0.0021500000000000963    4.634003    1.211689
    H    0.0012499999999995293    4.607187000000001    -1.272349
    H    0.001300000000000412    2.4650749999999997    -2.490059
    H    0.005624999999999998    -0.0001750000000003693    -2.510266
    H    0.002349999999999519    -2.4656000000000007    -2.490059
    H    0.00020000000000042206    -4.611562000000001    -1.272349
    H    -0.006175000000000042    -4.636628    1.211689
    H    -0.004899999999999571    -2.4893210000000003    2.443647
    H    -0.867585    0.0017499999999998073    2.143862
    H    0.851585    0.0017499999999998073    2.147712

