%NProcShared=48
%mem = 190GB
#n M062X/6-311++G(d,p) TD(NStates=1) EmpiricalDispersion=GD3 SP
 
 SP_-100

1 1
    C    0.015700000000000047    2.492355    1.360431
    C    0.019849999999999923    3.710583    0.671989
    C    0.005299999999999971    3.700111    -0.71383
    C    -0.019574999999999787    2.4746810000000004    -1.407538
    C    -0.019424999999999804    -2.474381    -1.407538
    C    0.006199999999999872    -3.698611    -0.71383
    C    0.021275000000000266    -3.710058    0.671989
    C    0.018550000000000066    -2.491455    1.360431
    C    0.010975    -0.0032999999999999696    1.453369
    C    -0.0305    0.00014999999999998348    -1.429189
    C    -0.00467500000000004    1.2524549999999999    0.677065
    C    -0.012200000000000044    1.238746    -0.730804
    C    -0.004450000000000065    -1.2525300000000001    0.677065
    C    -0.012799999999999978    -1.2391959999999997    -0.730804
    H    0.0036000000000001586    2.487996    2.443647
    H    0.019950000000000356    4.644502999999999    1.211689
    H    -0.003849999999999687    4.609637    -1.272349
    H    -0.008900000000000019    2.4787250000000003    -2.490059
    H    -0.028124999999999997    7.500000000015827e-05    -2.510266
    H    -0.009349999999999636    -2.4785    -2.490059
    H    -0.0034000000000000696    -4.607761999999999    -1.272349
    H    0.021675000000000333    -4.643377999999999    1.211689
    H    0.006899999999999795    -2.487021    2.443647
    H    -0.819585    -0.0007499999999999174    2.146612
    H    0.8995850000000001    -0.0007499999999999174    2.1449619999999996

