%NProcShared=48
%mem = 190GB
#n M062X/6-311++G(d,p) TD(NStates=1) EmpiricalDispersion=GD3 SP
 
 SP_75

1 1
    C    -0.012750000000000039    2.4929550000000003    1.360431
    C    -0.01597499999999996    3.694283    0.671989
    C    -0.0042999999999999705    3.6709609999999997    -0.71383
    C    0.01564999999999983    2.4539560000000002    -1.407538
    C    0.015549999999999842    -2.4541560000000002    -1.407538
    C    -0.004899999999999904    -3.6719609999999996    -0.71383
    C    -0.01692500000000019    -3.694633    0.671989
    C    -0.014650000000000052    -2.493555    1.360431
    C    -0.008775    0.0021999999999999797    1.453369
    C    0.024399999999999998    -9.999999999998899e-05    -1.429189
    C    0.003725000000000034    1.26973    0.677065
    C    0.009800000000000031    1.236421    -0.730804
    C    0.0035750000000000504    -1.26968    0.677065
    C    0.010199999999999987    -1.236121    -0.730804
    H    -0.0031000000000001027    2.4881960000000003    2.443647
    H    -0.016075000000000284    4.630628    1.211689
    H    0.003049999999999775    4.609087000000001    -1.272349
    H    0.00714999999999999    2.458625    -2.490059
    H    0.0225    -5.0000000000105516e-05    -2.510266
    H    0.007449999999999735    -2.458775    -2.490059
    H    0.00275000000000003    -4.6103369999999995    -1.272349
    H    -0.017225000000000268    -4.631378    1.211689
    H    -0.00529999999999986    -2.4888460000000006    2.443647
    H    -0.8915850000000001    0.0004999999999999449    2.145237
    H    0.827585    0.0004999999999999449    2.146337

