%NProcShared=48
%mem = 190GB
#n M062X/6-311++G(d,p) TD(NStates=1) EmpiricalDispersion=GD3 SP
 
 SP_-75

1 1
    C    0.024450000000000083    2.491455    1.360431
    C    0.02902500000000019    3.713758    0.671989
    C    0.008199999999999874    3.705311    -0.71383
    C    -0.027274999999999716    2.479031    -1.407538
    C    -0.02732499999999971    -2.4791309999999998    -1.407538
    C    0.007899999999999907    -3.7058109999999997    -0.71383
    C    0.028550000000000075    -3.713933    0.671989
    C    0.023500000000000076    -2.491755    1.360431
    C    0.0153    0.0010999999999999899    1.453369
    C    -0.0427    -4.999999999999449e-05    -1.429189
    C    -0.006350000000000078    1.2486799999999998    0.677065
    C    -0.017600000000000005    1.239646    -0.730804
    C    -0.0064250000000000695    -1.2486549999999998    0.677065
    C    -0.017400000000000027    -1.239496    -0.730804
    H    0.007899999999999907    2.487121    2.443647
    H    0.02942500000000048    4.646628    1.211689
    H    -0.004999999999999893    4.608162    -1.272349
    H    -0.012849999999999695    2.483    -2.490059
    H    -0.039375    -2.5000000000052758e-05    -2.510266
    H    -0.012699999999999823    -2.4830750000000004    -2.490059
    H    -0.005149999999999766    -4.608787    -1.272349
    H    0.028850000000000486    -4.647003    1.211689
    H    0.006800000000000028    -2.487446    2.443647
    H    -0.803585    0.00024999999999997247    2.1455119999999996
    H    0.9155850000000001    0.00024999999999997247    2.146062

