%NProcShared=48
%mem = 190GB
#n M062X/6-311++G(d,p) TD(NStates=1) EmpiricalDispersion=GD3 SP
 
 SP_-50

1 1
    C    -0.0019000000000000128    2.493255    1.360431
    C    -0.0009500000000002284    3.7018579999999996    0.671989
    C    -0.0005999999999999339    3.6848609999999997    -0.71383
    C    -9.999999999998899e-05    2.463356    -1.407538
    C    9.999999999998899e-05    -2.462956    -1.407538
    C    0.0005999999999999339    -3.682861    -0.71383
    C    0.0009500000000002284    -3.7011580000000004    0.671989
    C    0.0019000000000000128    -2.492055    1.360431
    C    5.0000000000000565e-05    -0.0043999999999999595    1.453369
    C    0.0    0.00019999999999997797    -1.429189
    C    -0.00014999999999998348    1.2620049999999998    0.677065
    C    0.00039999999999995595    1.237171    -0.730804
    C    0.00014999999999998348    -1.262105    0.677065
    C    -0.00039999999999995595    -1.237771    -0.730804
    H    -0.0021999999999997577    2.4887210000000004    2.443647
    H    -0.0011499999999999844    4.637503    1.211689
    H    -0.0002999999999997449    4.610512    -1.272349
    H    0.0002999999999997449    2.4677000000000007    -2.490059
    H    0.0    0.00010000000000021103    -2.510266
    H    -0.0002999999999997449    -2.4673999999999996    -2.490059
    H    0.0002999999999997449    -4.608012    -1.272349
    H    0.0011499999999999844    -4.6360030000000005    1.211689
    H    0.0021999999999997577    -2.4874210000000003    2.443647
    H    -0.859585    -0.0009999999999998899    2.146887
    H    0.859585    -0.0009999999999998899    2.144687

