%NProcShared=48
%mem = 190GB
#n M062X/6-311++G(d,p) TD(NStates=1) EmpiricalDispersion=GD3 SP
 
 SP_75

1 1
    C    -0.028350000000000097    2.494155    1.360431
    C    -0.033375000000000266    3.687583    0.671989
    C    -0.009499999999999842    3.6595609999999996    -0.71383
    C    0.031149999999999678    2.445056    -1.407538
    C    0.031249999999999667    -2.444856    -1.407538
    C    -0.008899999999999908    -3.6585609999999997    -0.71383
    C    -0.03242500000000004    -3.6872330000000004    0.671989
    C    -0.026450000000000085    -2.493555    1.360431
    C    -0.017474999999999997    -0.0021999999999999797    1.453369
    C    0.0488    9.999999999998899e-05    -1.429189
    C    0.0072250000000000925    1.2773299999999999    0.677065
    C    0.020199999999999996    1.2349210000000002    -0.730804
    C    0.007375000000000076    -1.27738    0.677065
    C    0.01980000000000004    -1.235221    -0.730804
    H    -0.009499999999999842    2.4892960000000004    2.443647
    H    -0.033875000000000544    4.625627999999999    1.211689
    H    0.005649999999999933    4.610787000000001    -1.272349
    H    0.014749999999999597    2.4499250000000004    -2.490059
    H    0.045    5.0000000000105516e-05    -2.510266
    H    0.014449999999999852    -2.449775    -2.490059
    H    0.005949999999999678    -4.6095369999999996    -1.272349
    H    -0.03272500000000056    -4.624878    1.211689
    H    -0.007300000000000084    -2.4886460000000006    2.443647
    H    -0.9235850000000001    -0.0004999999999999449    2.146337
    H    0.795585    -0.0004999999999999449    2.145237

