%NProcShared=48
%mem = 190GB
#n M062X/6-311++G(d,p) TD(NStates=1) EmpiricalDispersion=GD3 SP
 
 SP_-125

1 1
    C    0.0303500000000001    2.491455    1.360431
    C    0.03677500000000011    3.7174579999999997    0.671989
    C    0.010199999999999876    3.712011    -0.71383
    C    -0.03512499999999963    2.4836810000000002    -1.407538
    C    -0.035074999999999634    -2.483581    -1.407538
    C    0.010499999999999843    -3.711511    -0.71383
    C    0.03725000000000023    -3.717283    0.671989
    C    0.031300000000000106    -2.491155    1.360431
    C    0.019700000000000002    -0.0010999999999999899    1.453369
    C    -0.054900000000000004    4.999999999999449e-05    -1.429189
    C    -0.00825000000000009    1.2448299999999999    0.677065
    C    -0.02240000000000003    1.2400959999999999    -0.730804
    C    -0.008175000000000099    -1.244855    0.677065
    C    -0.02260000000000001    -1.240246    -0.730804
    H    0.008900000000000019    2.487221    2.443647
    H    0.037175000000000624    4.649877999999999    1.211689
    H    -0.006599999999999717    4.608562000000001    -1.272349
    H    -0.016349999999999754    2.4875000000000003    -2.490059
    H    -0.050625    2.5000000000052758e-05    -2.510266
    H    -0.016499999999999626    -2.487425    -2.490059
    H    -0.006449999999999845    -4.607937    -1.272349
    H    0.037750000000000616    -4.649503    1.211689
    H    0.009999999999999898    -2.486896    2.443647
    H    -0.787585    -0.00024999999999997247    2.1460619999999997
    H    0.9315850000000001    -0.00024999999999997247    2.145512

