%NProcShared=48
%mem = 190GB
#n M062X/6-311++G(d,p) TD(NStates=1) EmpiricalDispersion=GD3 SP
 
 SP_-150

1 1
    C    0.00990000000000002    2.493255    1.360431
    C    0.014549999999999619    3.7092579999999997    0.671989
    C    0.0034000000000000696    3.698261    -0.71383
    C    -0.015799999999999814    2.4726559999999997    -1.407538
    C    -0.015399999999999858    -2.4718560000000007    -1.407538
    C    0.005799999999999805    -3.694261    -0.71383
    C    0.018350000000000533    -3.7078580000000003    0.671989
    C    0.01750000000000007    -2.490855    1.360431
    C    0.00885    -0.008799999999999919    1.453369
    C    -0.0244    0.00039999999999995595    -1.429189
    C    -0.003950000000000009    1.254305    0.677065
    C    -0.009200000000000097    1.238071    -0.730804
    C    -0.003350000000000075    -1.254505    0.677065
    C    -0.01079999999999992    -1.2392709999999998    -0.730804
    H    -0.00019999999999953388    2.488921    2.443647
    H    0.014350000000000307    4.644002999999999    1.211689
    H    -0.0034999999999993925    4.611312    -1.272349
    H    -0.006700000000000372    2.476700000000001    -2.490059
    H    -0.022500000000000003    0.00020000000000042206    -2.510266
    H    -0.007899999999999352    -2.4760999999999997    -2.490059
    H    -0.002300000000000413    -4.606312    -1.272349
    H    0.018950000000000244    -4.6410029999999995    1.211689
    H    0.008599999999999497    -2.4863210000000002    2.443647
    H    -0.827585    -0.0019999999999997797    2.147987
    H    0.8915850000000001    -0.0019999999999997797    2.1435869999999997

