%NProcShared=48
%mem = 190GB
#n M062X/6-311++G(d,p) TD(NStates=1) EmpiricalDispersion=GD3 SP
 
 SP_-25

1 1
    C    -0.02045000000000008    2.4944550000000003    1.360431
    C    -0.022225000000000494    3.693308    0.671989
    C    -0.006799999999999806    3.670111    -0.71383
    C    0.019324999999999815    2.4521309999999996    -1.407538
    C    0.019674999999999776    -2.4514310000000004    -1.407538
    C    -0.0047000000000000375    -3.6666109999999996    -0.71383
    C    -0.018899999999999695    -3.6920830000000002    0.671989
    C    -0.013800000000000034    -2.492355    1.360431
    C    -0.010849999999999999    -0.007699999999999929    1.453369
    C    0.0305    0.00034999999999996145    -1.429189
    C    0.0043000000000000815    1.2715299999999998    0.677065
    C    0.013199999999999934    1.235446    -0.730804
    C    0.004825000000000024    -1.2717049999999999    0.677065
    C    0.011800000000000088    -1.236496    -0.730804
    H    -0.009099999999999553    2.489771    2.443647
    H    -0.022825000000000317    4.630877999999999    1.211689
    H    0.0031000000000003247    4.612012000000001    -1.272349
    H    0.009649999999999381    2.4567500000000004    -2.490059
    H    0.028125000000000004    0.0001750000000003693    -2.510266
    H    0.008600000000000274    -2.4562249999999994    -2.490059
    H    0.004149999999999432    -4.607637    -1.272349
    H    -0.018800000000000372    -4.628252999999999    1.211689
    H    -0.001400000000000401    -2.487496    2.443647
    H    -0.8995850000000001    -0.0017499999999998073    2.147712
    H    0.819585    -0.0017499999999998073    2.143862

