%NProcShared=48
%mem = 190GB
#n M062X/6-311++G(d,p) TD(NStates=1) EmpiricalDispersion=GD3 SP
 
 SP_25

1 1
    C    -0.02245000000000008    2.494155    1.360431
    C    -0.025625000000000342    3.691283    0.671989
    C    -0.00749999999999984    3.6662609999999995    -0.71383
    C    0.023299999999999765    2.449706    -1.407538
    C    0.023499999999999743    -2.449306    -1.407538
    C    -0.006299999999999972    -3.6642609999999998    -0.71383
    C    -0.023724999999999885    -3.690583    0.671989
    C    -0.018650000000000055    -2.4929550000000003    1.360431
    C    -0.013075    -0.0043999999999999595    1.453369
    C    0.0366    0.00019999999999997797    -1.429189
    C    0.00532500000000008    1.2734799999999997    0.677065
    C    0.01539999999999997    1.2353710000000002    -0.730804
    C    0.005625000000000047    -1.27358    0.677065
    C    0.014600000000000057    -1.235971    -0.730804
    H    -0.00849999999999973    2.489396    2.443647
    H    -0.026125000000000398    4.628877999999999    1.211689
    H    0.004050000000000109    4.611187    -1.272349
    H    0.011249999999999538    2.4544250000000005    -2.490059
    H    0.03375    0.00010000000000021103    -2.510266
    H    0.010650000000000048    -2.454125    -2.490059
    H    0.004649999999999599    -4.608687    -1.272349
    H    -0.02382500000000043    -4.627378    1.211689
    H    -0.004100000000000215    -2.488096    2.443647
    H    -0.9075850000000001    -0.0009999999999998899    2.146887
    H    0.811585    -0.0009999999999998899    2.144687

