%NProcShared=48
%mem = 190GB
#n M062X/6-311++G(d,p) TD(NStates=1) EmpiricalDispersion=GD3 SP
 
 SP_-150

1 1
    C    0.03330000000000011    2.491455    1.360431
    C    0.040650000000000075    3.719308    0.671989
    C    0.011199999999999877    3.715361    -0.71383
    C    -0.039049999999999585    2.486006    -1.407538
    C    -0.038949999999999596    -2.485806    -1.407538
    C    0.01179999999999981    -3.7143610000000002    -0.71383
    C    0.0416000000000003    -3.718958    0.671989
    C    0.03520000000000012    -2.490855    1.360431
    C    0.0219    -0.0021999999999999797    1.453369
    C    -0.061    9.999999999998899e-05    -1.429189
    C    -0.009200000000000097    1.242905    0.677065
    C    -0.024800000000000044    1.2403209999999998    -0.730804
    C    -0.009050000000000114    -1.242955    0.677065
    C    -0.0252    -1.240621    -0.730804
    H    0.009400000000000075    2.487271    2.443647
    H    0.0410500000000007    4.651502999999999    1.211689
    H    -0.007399999999999629    4.6087620000000005    -1.272349
    H    -0.018099999999999783    2.4897500000000004    -2.490059
    H    -0.05625    5.0000000000105516e-05    -2.510266
    H    -0.018399999999999528    -2.4896000000000003    -2.490059
    H    -0.007099999999999884    -4.607512    -1.272349
    H    0.04220000000000068    -4.650753    1.211689
    H    0.011599999999999833    -2.486621    2.443647
    H    -0.779585    -0.0004999999999999449    2.146337
    H    0.9395850000000001    -0.0004999999999999449    2.145237

