%NProcShared=48
%mem = 190GB
#n M062X/6-311++G(d,p) TD(NStates=1) EmpiricalDispersion=GD3 SP
 
 SP_-125

1 1
    C    0.02255000000000007    2.492055    1.360431
    C    0.02807499999999996    3.714108    0.671989
    C    0.00759999999999994    3.706311    -0.71383
    C    -0.027374999999999705    2.4792310000000004    -1.407538
    C    -0.02722499999999972    -2.478931    -1.407538
    C    0.008499999999999841    -3.704811    -0.71383
    C    0.029500000000000304    -3.713583    0.671989
    C    0.02540000000000009    -2.491155    1.360431
    C    0.01535    -0.0032999999999999696    1.453369
    C    -0.0427    0.00014999999999998348    -1.429189
    C    -0.006500000000000061    1.24863    0.677065
    C    -0.01720000000000005    1.239346    -0.730804
    C    -0.006275000000000086    -1.2487050000000002    0.677065
    C    -0.017799999999999983    -1.239796    -0.730804
    H    0.005700000000000149    2.487771    2.443647
    H    0.028275000000000494    4.647378    1.211689
    H    -0.005299999999999638    4.609412000000001    -1.272349
    H    -0.01254999999999995    2.48315    -2.490059
    H    -0.039375    7.500000000015827e-05    -2.510266
    H    -0.012999999999999567    -2.482925    -2.490059
    H    -0.004850000000000021    -4.607537    -1.272349
    H    0.03000000000000047    -4.646253    1.211689
    H    0.008999999999999786    -2.486796    2.443647
    H    -0.803585    -0.0007499999999999174    2.1466119999999997
    H    0.9155850000000001    -0.0007499999999999174    2.144962

