%NProcShared=48
%mem = 190GB
#n M062X/6-311++G(d,p) TD(NStates=1) EmpiricalDispersion=GD3 SP
 
 SP_-125

1 1
    C    0.006950000000000012    2.493255    1.360431
    C    0.010674999999999657    3.7074079999999996    0.671989
    C    0.0024000000000000687    3.694911    -0.71383
    C    -0.011874999999999858    2.470331    -1.407538
    C    -0.011524999999999896    -2.4696310000000006    -1.407538
    C    0.0044999999999998375    -3.691411    -0.71383
    C    0.014000000000000457    -3.7061830000000002    0.671989
    C    0.013600000000000056    -2.491155    1.360431
    C    0.006650000000000001    -0.007699999999999929    1.453369
    C    -0.018300000000000004    0.00034999999999996145    -1.429189
    C    -0.0030000000000000027    1.25623    0.677065
    C    -0.006800000000000084    1.237846    -0.730804
    C    -0.0024750000000000605    -1.256405    0.677065
    C    -0.00819999999999993    -1.2388959999999998    -0.730804
    H    -0.0006999999999995898    2.488871    2.443647
    H    0.010475000000000234    4.642377999999999    1.211689
    H    -0.0026999999999994806    4.611112    -1.272349
    H    -0.004950000000000343    2.474450000000001    -2.490059
    H    -0.016875    0.0001750000000003693    -2.510266
    H    -0.00599999999999945    -2.4739249999999995    -2.490059
    H    -0.0016500000000003734    -4.606737    -1.272349
    H    0.01450000000000018    -4.639753000000001    1.211689
    H    0.006999999999999562    -2.4865960000000005    2.443647
    H    -0.835585    -0.0017499999999998073    2.147712
    H    0.8835850000000001    -0.0017499999999998073    2.143862

