%NProcShared=48
%mem = 190GB
#n M062X/6-311++G(d,p) TD(NStates=1) EmpiricalDispersion=GD3 SP
 
 SP_125

1 1
    C    0.004750000000000032    2.491155    1.360431
    C    0.002375000000000571    3.7006330000000003    0.671989
    C    0.0014999999999998348    3.681361    -0.71383
    C    0.00024999999999997247    2.4626560000000004    -1.407538
    C    -0.00024999999999997247    -2.463656    -1.407538
    C    -0.0014999999999998348    -3.6863609999999998    -0.71383
    C    -0.002375000000000571    -3.7023829999999998    0.671989
    C    -0.004750000000000032    -2.494155    1.360431
    C    -0.00012500000000000185    0.010999999999999899    1.453369
    C    0.0    -0.0004999999999999449    -1.429189
    C    0.0003749999999999587    1.26218    0.677065
    C    -0.0009999999999998899    1.2382209999999998    -0.730804
    C    -0.0003749999999999587    -1.2619299999999998    0.677065
    C    0.0009999999999998899    -1.2367210000000002    -0.730804
    H    0.005499999999999394    2.486446    2.443647
    H    0.002874999999999961    4.6348780000000005    1.211689
    H    0.0007499999999993623    4.6061369999999995    -1.272349
    H    -0.0007499999999993623    2.4671749999999992    -2.490059
    H    0.0    -0.0002500000000005276    -2.510266
    H    0.0007499999999993623    -2.467925000000001    -2.490059
    H    -0.0007499999999993623    -4.612387    -1.272349
    H    -0.002874999999999961    -4.638627999999999    1.211689
    H    -0.005499999999999394    -2.489696    2.443647
    H    -0.859585    0.0024999999999997247    2.143037
    H    0.859585    0.0024999999999997247    2.1485369999999997

