%NProcShared=48
%mem = 190GB
#n M062X/6-311++G(d,p) TD(NStates=1) EmpiricalDispersion=GD3 SP
 
 SP_-125

1 1
    C    0.010850000000000026    2.4929550000000003    1.360431
    C    0.015024999999999733    3.7090829999999997    0.671989
    C    0.0037000000000000366    3.697761    -0.71383
    C    -0.01574999999999982    2.472556    -1.407538
    C    -0.015449999999999853    -2.4719560000000005    -1.407538
    C    0.005499999999999838    -3.6947609999999997    -0.71383
    C    0.01787500000000042    -3.708033    0.671989
    C    0.016550000000000065    -2.491155    1.360431
    C    0.008825000000000001    -0.006599999999999939    1.453369
    C    -0.024400000000000005    0.00029999999999996696    -1.429189
    C    -0.0038750000000000173    1.25433    0.677065
    C    -0.009400000000000075    1.238221    -0.730804
    C    -0.003425000000000067    -1.25448    0.677065
    C    -0.010599999999999943    -1.239121    -0.730804
    H    0.000900000000000345    2.4885960000000003    2.443647
    H    0.0149250000000003    4.643628    1.211689
    H    -0.00334999999999952    4.610687    -1.272349
    H    -0.006850000000000245    2.4766250000000007    -2.490059
    H    -0.0225    0.00015000000000031655    -2.510266
    H    -0.0077499999999994795    -2.4761749999999996    -2.490059
    H    -0.0024500000000002853    -4.606937    -1.272349
    H    0.018375000000000252    -4.6413780000000004    1.211689
    H    0.007499999999999618    -2.4866460000000004    2.443647
    H    -0.827585    -0.0014999999999998348    2.1474369999999996
    H    0.8915850000000001    -0.0014999999999998348    2.144137

