%NProcShared=48
%mem = 190GB
#n M062X/6-311++G(d,p) TD(NStates=1) EmpiricalDispersion=GD3 SP
 
 SP_-75

1 1
    C    0.0010499999999999954    2.493255    1.360431
    C    0.0029249999999997334    3.703708    0.671989
    C    0.00040000000000006697    3.688211    -0.71383
    C    -0.004024999999999945    2.465681    -1.407538
    C    -0.003774999999999973    -2.4651810000000003    -1.407538
    C    0.0018999999999999018    -3.685711    -0.71383
    C    0.0053000000000003045    -3.702833    0.671989
    C    0.005800000000000027    -2.491755    1.360431
    C    0.0022500000000000003    -0.005499999999999949    1.453369
    C    -0.006100000000000001    0.00024999999999997247    -1.429189
    C    -0.0010999999999999899    1.2600799999999999    0.677065
    C    -0.0020000000000000573    1.237396    -0.730804
    C    -0.0007250000000000312    -1.260205    0.677065
    C    -0.002999999999999947    -1.238146    -0.730804
    H    -0.0016999999999997017    2.4887710000000003    2.443647
    H    0.0027250000000000885    4.6391279999999995    1.211689
    H    -0.0010999999999996568    4.6107119999999995    -1.272349
    H    -0.0014500000000002844    2.4699500000000008    -2.490059
    H    -0.0056250000000000015    0.0001250000000002638    -2.510266
    H    -0.0021999999999996467    -2.469575    -2.490059
    H    -0.0003500000000002945    -4.6075870000000005    -1.272349
    H    0.005600000000000049    -4.637252999999999    1.211689
    H    0.0037999999999996925    -2.487146    2.443647
    H    -0.851585    -0.0012499999999998623    2.147162
    H    0.867585    -0.0012499999999998623    2.144412

