%NProcShared=48
%mem = 190GB
#n M062X/6-311++G(d,p) TD(NStates=1) EmpiricalDispersion=GD3 SP
 
 SP_150

1 1
    C    -0.025500000000000078    2.493255    1.360431
    C    -0.03194999999999992    3.687058    0.671989
    C    -0.008599999999999941    3.6580609999999996    -0.71383
    C    0.03129999999999966    2.444756    -1.407538
    C    0.031099999999999683    -2.445156    -1.407538
    C    -0.009799999999999809    -3.660061    -0.71383
    C    -0.03385000000000038    -3.687758    0.671989
    C    -0.029300000000000104    -2.4944550000000003    1.360431
    C    -0.01755    0.0043999999999999595    1.453369
    C    0.048799999999999996    -0.00019999999999997797    -1.429189
    C    0.007450000000000068    1.277405    0.677065
    C    0.019600000000000062    1.235371    -0.730804
    C    0.007150000000000101    -1.2773049999999997    0.677065
    C    0.020399999999999974    -1.234771    -0.730804
    H    -0.006200000000000205    2.4883210000000004    2.443647
    H    -0.03215000000000057    4.624503    1.211689
    H    0.00609999999999955    4.608912    -1.272349
    H    0.01429999999999998    2.4497    -2.490059
    H    0.045    -0.00010000000000021103    -2.510266
    H    0.01489999999999947    -2.45    -2.490059
    H    0.00550000000000006    -4.6114120000000005    -1.272349
    H    -0.034450000000000536    -4.626002999999999    1.211689
    H    -0.01059999999999972    -2.4896210000000005    2.443647
    H    -0.9235850000000001    0.0009999999999998899    2.144687
    H    0.795585    0.0009999999999998899    2.146887

