%NProcShared=48
%mem = 190GB
#n M062X/6-311++G(d,p) TD(NStates=1) EmpiricalDispersion=GD3 SP
 
 SP_-150

1 1
    C    0.01770000000000005    2.492655    1.360431
    C    0.02324999999999977    3.712608    0.671989
    C    0.006000000000000005    3.703961    -0.71383
    C    -0.023549999999999738    2.477106    -1.407538
    C    -0.02324999999999977    -2.4765060000000005    -1.407538
    C    0.007799999999999807    -3.700961    -0.71383
    C    0.026100000000000456    -3.711558    0.671989
    C    0.023400000000000087    -2.490855    1.360431
    C    0.0132    -0.006599999999999939    1.453369
    C    -0.0366    0.00029999999999996696    -1.429189
    C    -0.005700000000000038    1.250505    0.677065
    C    -0.01440000000000008    1.238821    -0.730804
    C    -0.005250000000000088    -1.250655    0.677065
    C    -0.015599999999999947    -1.2397209999999999    -0.730804
    H    0.0030000000000003357    2.488371    2.443647
    H    0.023250000000000437    4.646502999999999    1.211689
    H    -0.004799999999999471    4.610462    -1.272349
    H    -0.010500000000000176    2.4810500000000006    -2.490059
    H    -0.03375    0.00015000000000031655    -2.510266
    H    -0.01139999999999941    -2.4806    -2.490059
    H    -0.0039000000000002366    -4.606712    -1.272349
    H    0.02670000000000039    -4.644253    1.211689
    H    0.009599999999999609    -2.486421    2.443647
    H    -0.811585    -0.0014999999999998348    2.147437
    H    0.9075850000000001    -0.0014999999999998348    2.1441369999999997

