%NProcShared=48
%mem = 190GB
#n M062X/6-311++G(d,p) TD(NStates=1) EmpiricalDispersion=GD3 SP
 
 SP_-25

1 1
    C    -0.004850000000000021    2.493255    1.360431
    C    -0.00482500000000019    3.700008    0.671989
    C    -0.0015999999999999348    3.681511    -0.71383
    C    0.0038249999999999673    2.461031    -1.407538
    C    0.003974999999999951    -2.4607310000000004    -1.407538
    C    -0.0007000000000000339    -3.680011    -0.71383
    C    -0.0033999999999998476    -3.6994830000000003    0.671989
    C    -0.0020000000000000018    -2.492355    1.360431
    C    -0.0021499999999999996    -0.0032999999999999696    1.453369
    C    0.0060999999999999995    0.00014999999999998348    -1.429189
    C    0.0008000000000000229    1.26393    0.677065
    C    0.002799999999999969    1.2369459999999999    -0.730804
    C    0.0010249999999999981    -1.264005    0.677065
    C    0.0022000000000000353    -1.237396    -0.730804
    H    -0.0026999999999998137    2.488671    2.443647
    H    -0.005025000000000057    4.635877999999999    1.211689
    H    0.000500000000000167    4.610312    -1.272349
    H    0.0020499999999997742    2.4654500000000006    -2.490059
    H    0.005625    7.500000000015827e-05    -2.510266
    H    0.0016000000000001569    -2.4652249999999998    -2.490059
    H    0.0009499999999997844    -4.608437    -1.272349
    H    -0.0033000000000000806    -4.634753    1.211689
    H    0.0005999999999998229    -2.4876960000000006    2.443647
    H    -0.867585    -0.0007499999999999174    2.1466119999999997
    H    0.851585    -0.0007499999999999174    2.144962

