%NProcShared=48
%mem = 190GB
#n M062X/6-311++G(d,p) TD(NStates=1) EmpiricalDispersion=GD3 SP
 
 SP_25

1 1
    C    -0.006850000000000023    2.4929550000000003    1.360431
    C    -0.008225000000000038    3.697983    0.671989
    C    -0.0022999999999999687    3.6776609999999996    -0.71383
    C    0.007799999999999918    2.458606    -1.407538
    C    0.007799999999999918    -2.458606    -1.407538
    C    -0.0022999999999999687    -3.6776609999999996    -0.71383
    C    -0.008225000000000038    -3.697983    0.671989
    C    -0.006850000000000023    -2.4929550000000003    1.360431
    C    -0.004375    0.0    1.453369
    C    0.012199999999999999    0.0    -1.429189
    C    0.001825000000000021    1.26588    0.677065
    C    0.0050000000000000044    1.236871    -0.730804
    C    0.001825000000000021    -1.26588    0.677065
    C    0.0050000000000000044    -1.236871    -0.730804
    H    -0.0020999999999999908    2.488296    2.443647
    H    -0.008325000000000138    4.633878    1.211689
    H    0.0014499999999999513    4.609487    -1.272349
    H    0.003649999999999931    2.4631250000000002    -2.490059
    H    0.01125    0.0    -2.510266
    H    0.003649999999999931    -2.4631250000000002    -2.490059
    H    0.0014499999999999513    -4.609487    -1.272349
    H    -0.008325000000000138    -4.633878    1.211689
    H    -0.0020999999999999908    -2.488296    2.443647
    H    -0.8755850000000001    0.0    2.145787
    H    0.843585    0.0    2.145787

