%NProcShared=48
%mem = 190GB
#n M062X/6-311++G(d,p) TD(NStates=1) EmpiricalDispersion=GD3 SP
 
 SP_-25

1 1
    C    0.002950000000000008    2.492655    1.360431
    C    0.003874999999999962    3.703358    0.671989
    C    0.0010000000000000009    3.687211    -0.71383
    C    -0.003924999999999956    2.465481    -1.407538
    C    -0.003874999999999962    -2.4653810000000003    -1.407538
    C    0.0012999999999999678    -3.686711    -0.71383
    C    0.004350000000000076    -3.703183    0.671989
    C    0.0039000000000000146    -2.492355    1.360431
    C    0.0022    -0.0010999999999999899    1.453369
    C    -0.0060999999999999995    4.999999999999449e-05    -1.429189
    C    -0.0009500000000000064    1.26013    0.677065
    C    -0.0024000000000000132    1.237696    -0.730804
    C    -0.0008750000000000147    -1.260155    0.677065
    C    -0.002599999999999991    -1.237846    -0.730804
    H    0.000500000000000056    2.488121    2.443647
    H    0.003875000000000073    4.6383779999999994    1.211689
    H    -0.0007999999999999119    4.609462000000001    -1.272349
    H    -0.0017500000000000293    2.4698    -2.490059
    H    -0.005625    2.5000000000052758e-05    -2.510266
    H    -0.0018999999999999018    -2.469725    -2.490059
    H    -0.0006500000000000394    -4.608837    -1.272349
    H    0.004450000000000065    -4.638002999999999    1.211689
    H    0.0015999999999999348    -2.4877960000000003    2.443647
    H    -0.851585    -0.00024999999999997247    2.1460619999999997
    H    0.867585    -0.00024999999999997247    2.145512

