%NProcShared=48
%mem = 190GB
#n M062X/6-311++G(d,p) TD(NStates=1) EmpiricalDispersion=GD3 SP
 
 SP_125

1 1
    C    -0.03815000000000013    2.4944550000000003    1.360431
    C    -0.045475000000000265    3.682208    0.671989
    C    -0.012799999999999812    3.6500109999999997    -0.71383
    C    0.04287499999999955    2.438181    -1.407538
    C    0.04292499999999955    -2.438081    -1.407538
    C    -0.012499999999999845    -3.6495109999999995    -0.71383
    C    -0.04500000000000015    -3.682033    0.671989
    C    -0.03720000000000012    -2.494155    1.360431
    C    -0.024050000000000002    -0.0010999999999999899    1.453369
    C    0.0671    4.999999999999449e-05    -1.429189
    C    0.01000000000000012    1.2830799999999998    0.677065
    C    0.027600000000000013    1.234096    -0.730804
    C    0.010075000000000112    -1.283105    0.677065
    C    0.027400000000000035    -1.2342460000000002    -0.730804
    H    -0.012099999999999889    2.4894710000000004    2.443647
    H    -0.046075000000000754    4.621128    1.211689
    H    0.007899999999999796    4.610812    -1.272349
    H    0.020149999999999557    2.44325    -2.490059
    H    0.061875    2.5000000000052758e-05    -2.510266
    H    0.019999999999999685    -2.443175    -2.490059
    H    0.008049999999999669    -4.610187000000001    -1.272349
    H    -0.04550000000000076    -4.620752999999999    1.211689
    H    -0.01100000000000001    -2.489146    2.443647
    H    -0.9475850000000001    -0.00024999999999997247    2.146062
    H    0.771585    -0.00024999999999997247    2.1455119999999996

