%NProcShared=48
%mem = 190GB
#n M062X/6-311++G(d,p) TD(NStates=1) EmpiricalDispersion=GD3 SP
 
 SP_-100

1 1
    C    0.0040000000000000036    2.493255    1.360431
    C    0.006799999999999695    3.705558    0.671989
    C    0.0014000000000000679    3.691561    -0.71383
    C    -0.007949999999999902    2.468006    -1.407538
    C    -0.007649999999999935    -2.4674060000000004    -1.407538
    C    0.0031999999999998696    -3.688561    -0.71383
    C    0.00965000000000038    -3.704508    0.671989
    C    0.009700000000000042    -2.491455    1.360431
    C    0.004450000000000001    -0.006599999999999939    1.453369
    C    -0.012199999999999999    0.00029999999999996696    -1.429189
    C    -0.0020499999999999963    1.258155    0.677065
    C    -0.0044000000000000705    1.2376209999999999    -0.730804
    C    -0.0016000000000000458    -1.258305    0.677065
    C    -0.005599999999999938    -1.2385209999999998    -0.730804
    H    -0.0011999999999996458    2.488821    2.443647
    H    0.006600000000000161    4.640752999999999    1.211689
    H    -0.0018999999999995687    4.610912    -1.272349
    H    -0.0032000000000003137    2.472200000000001    -2.490059
    H    -0.01125    0.00015000000000031655    -2.510266
    H    -0.0040999999999995485    -2.4717499999999997    -2.490059
    H    -0.001000000000000334    -4.607162    -1.272349
    H    0.010050000000000114    -4.638503    1.211689
    H    0.005399999999999627    -2.486871    2.443647
    H    -0.843585    -0.0014999999999998348    2.147437
    H    0.8755850000000001    -0.0014999999999998348    2.1441369999999997

