%NProcShared=48
%mem = 190GB
#n M062X/6-311++G(d,p) TD(NStates=1) EmpiricalDispersion=GD3 SP
 
 SP_-125

1 1
    C    0.034250000000000114    2.491155    1.360431
    C    0.04112500000000019    3.719133    0.671989
    C    0.011499999999999844    3.714861    -0.71383
    C    -0.03899999999999959    2.4859060000000004    -1.407538
    C    -0.03899999999999959    -2.4859060000000004    -1.407538
    C    0.011499999999999844    -3.714861    -0.71383
    C    0.04112500000000019    -3.719133    0.671989
    C    0.034250000000000114    -2.491155    1.360431
    C    0.021875    0.0    1.453369
    C    -0.061000000000000006    0.0    -1.429189
    C    -0.009125000000000105    1.24293    0.677065
    C    -0.025000000000000022    1.2404709999999999    -0.730804
    C    -0.009125000000000105    -1.24293    0.677065
    C    -0.025000000000000022    -1.2404709999999999    -0.730804
    H    0.010499999999999954    2.4869459999999997    2.443647
    H    0.04162500000000069    4.651128    1.211689
    H    -0.007249999999999757    4.608137    -1.272349
    H    -0.018249999999999655    2.489675    -2.490059
    H    -0.05625    0.0    -2.510266
    H    -0.018249999999999655    -2.489675    -2.490059
    H    -0.007249999999999757    -4.608136999999999    -1.272349
    H    0.04162500000000069    -4.651128    1.211689
    H    0.010499999999999954    -2.486946    2.443647
    H    -0.779585    0.0    2.145787
    H    0.9395850000000001    0.0    2.145787

