%NProcShared=48
%mem = 190GB
#n M062X/6-311++G(d,p) TD(NStates=1) EmpiricalDispersion=GD3 SP
 
 SP_75

1 1
    C    -0.0010499999999999954    2.492055    1.360431
    C    -0.0029249999999997334    3.6993080000000003    0.671989
    C    -0.00040000000000006697    3.6795109999999998    -0.71383
    C    0.004024999999999945    2.4606310000000002    -1.407538
    C    0.003774999999999973    -2.461131    -1.407538
    C    -0.0018999999999999018    -3.6820109999999997    -0.71383
    C    -0.0053000000000003045    -3.700183    0.671989
    C    -0.005800000000000027    -2.493555    1.360431
    C    -0.0022500000000000003    0.005499999999999949    1.453369
    C    0.006100000000000001    -0.00024999999999997247    -1.429189
    C    0.0010999999999999899    1.26403    0.677065
    C    0.0020000000000000573    1.237546    -0.730804
    C    0.0007250000000000312    -1.2639049999999998    0.677065
    C    0.002999999999999947    -1.236796    -0.730804
    H    0.0016999999999997017    2.487371    2.443647
    H    -0.0027250000000000885    4.634378    1.211689
    H    0.0010999999999996568    4.607812000000001    -1.272349
    H    0.0014500000000002844    2.4651499999999995    -2.490059
    H    0.0056250000000000015    -0.0001250000000002638    -2.510266
    H    0.0021999999999996467    -2.4655250000000004    -2.490059
    H    0.0003500000000002945    -4.610937    -1.272349
    H    -0.005600000000000049    -4.636253    1.211689
    H    -0.0037999999999996925    -2.488996    2.443647
    H    -0.867585    0.0012499999999998623    2.144412
    H    0.851585    0.0012499999999998623    2.147162

