%NProcShared=48
%mem = 190GB
#n M062X/6-311++G(d,p) TD(NStates=1) EmpiricalDispersion=GD3 SP
 
 SP_-125

1 1
    C    0.03815000000000013    2.490855    1.360431
    C    0.045475000000000265    3.720808    0.671989
    C    0.012799999999999812    3.717711    -0.71383
    C    -0.04287499999999955    2.488131    -1.407538
    C    -0.04292499999999955    -2.4882310000000003    -1.407538
    C    0.012499999999999845    -3.718211    -0.71383
    C    0.04500000000000015    -3.720983    0.671989
    C    0.03720000000000012    -2.491155    1.360431
    C    0.024050000000000002    0.0010999999999999899    1.453369
    C    -0.0671    -4.999999999999449e-05    -1.429189
    C    -0.01000000000000012    1.24103    0.677065
    C    -0.027600000000000013    1.240846    -0.730804
    C    -0.010075000000000112    -1.241005    0.677065
    C    -0.027400000000000035    -1.2406959999999998    -0.730804
    H    0.012099999999999889    2.486671    2.443647
    H    0.046075000000000754    4.652378    1.211689
    H    -0.007899999999999796    4.607712    -1.272349
    H    -0.020149999999999557    2.4918500000000003    -2.490059
    H    -0.061875    -2.5000000000052758e-05    -2.510266
    H    -0.019999999999999685    -2.491925    -2.490059
    H    -0.008049999999999669    -4.608337    -1.272349
    H    0.04550000000000076    -4.652753000000001    1.211689
    H    0.01100000000000001    -2.4869960000000004    2.443647
    H    -0.771585    0.00024999999999997247    2.1455119999999996
    H    0.9475850000000001    0.00024999999999997247    2.146062

