%NProcShared=48
%mem = 190GB
#n M062X/6-311++G(d,p) TD(NStates=1) EmpiricalDispersion=GD3 SP
 
 SP_-75

1 1
    C    0.028350000000000097    2.491155    1.360431
    C    0.033375000000000266    3.715433    0.671989
    C    0.009499999999999842    3.708161    -0.71383
    C    -0.031149999999999678    2.481256    -1.407538
    C    -0.031249999999999667    -2.481456    -1.407538
    C    0.008899999999999908    -3.709161    -0.71383
    C    0.03242500000000004    -3.7157829999999996    0.671989
    C    0.026450000000000085    -2.491755    1.360431
    C    0.017474999999999997    0.0021999999999999797    1.453369
    C    -0.0488    -9.999999999998899e-05    -1.429189
    C    -0.0072250000000000925    1.24678    0.677065
    C    -0.020199999999999996    1.2400209999999998    -0.730804
    C    -0.007375000000000076    -1.24673    0.677065
    C    -0.01980000000000004    -1.239721    -0.730804
    H    0.009499999999999842    2.486846    2.443647
    H    0.033875000000000544    4.647878    1.211689
    H    -0.005649999999999933    4.607736999999999    -1.272349
    H    -0.014749999999999597    2.485175    -2.490059
    H    -0.045    -5.0000000000105516e-05    -2.510266
    H    -0.014449999999999852    -2.4853250000000005    -2.490059
    H    -0.005949999999999678    -4.608987000000001    -1.272349
    H    0.03272500000000056    -4.6486279999999995    1.211689
    H    0.007300000000000084    -2.4874959999999997    2.443647
    H    -0.795585    0.0004999999999999449    2.145237
    H    0.9235850000000001    0.0004999999999999449    2.146337

