%NProcShared=48
%mem = 190GB
#n M062X/6-311++G(d,p) TD(NStates=1) EmpiricalDispersion=GD3 SP
 
 SP_100

1 1
    C    -0.023500000000000076    2.493555    1.360431
    C    -0.028550000000000075    3.689083    0.671989
    C    -0.007899999999999907    3.6619109999999995    -0.71383
    C    0.02732499999999971    2.447181    -1.407538
    C    0.027274999999999716    -2.4472810000000003    -1.407538
    C    -0.008199999999999874    -3.6624109999999996    -0.71383
    C    -0.02902500000000019    -3.689258    0.671989
    C    -0.024450000000000083    -2.493855    1.360431
    C    -0.015325    0.0010999999999999899    1.453369
    C    0.0427    -4.999999999999449e-05    -1.429189
    C    0.0064250000000000695    1.275455    0.677065
    C    0.017400000000000027    1.235446    -0.730804
    C    0.006350000000000078    -1.2754299999999998    0.677065
    C    0.017600000000000005    -1.2352960000000002    -0.730804
    H    -0.006800000000000028    2.488696    2.443647
    H    -0.028850000000000486    4.626503    1.211689
    H    0.005149999999999766    4.609737    -1.272349
    H    0.012699999999999823    2.452025    -2.490059
    H    0.039375    -2.5000000000052758e-05    -2.510266
    H    0.012849999999999695    -2.4521    -2.490059
    H    0.004999999999999893    -4.610362    -1.272349
    H    -0.02942500000000048    -4.626878    1.211689
    H    -0.007899999999999907    -2.489021    2.443647
    H    -0.9155850000000001    0.00024999999999997247    2.1455119999999996
    H    0.803585    0.00024999999999997247    2.146062

