%NProcShared=48
%mem = 190GB
#n M062X/6-311++G(d,p) TD(NStates=1) EmpiricalDispersion=GD3 SP
 
 SP_-50

1 1
    C    0.029300000000000104    2.490855    1.360431
    C    0.03385000000000038    3.715258    0.671989
    C    0.009799999999999809    3.707661    -0.71383
    C    -0.031099999999999683    2.4811560000000004    -1.407538
    C    -0.03129999999999966    -2.481556    -1.407538
    C    0.008599999999999941    -3.709661    -0.71383
    C    0.03194999999999992    -3.715958    0.671989
    C    0.025500000000000078    -2.492055    1.360431
    C    0.01745    0.0043999999999999595    1.453369
    C    -0.048799999999999996    -0.00019999999999997797    -1.429189
    C    -0.007150000000000101    1.246805    0.677065
    C    -0.020399999999999974    1.240171    -0.730804
    C    -0.007450000000000068    -1.246705    0.677065
    C    -0.019600000000000062    -1.239571    -0.730804
    H    0.01059999999999972    2.486521    2.443647
    H    0.034450000000000536    4.647503    1.211689
    H    -0.00550000000000006    4.607112    -1.272349
    H    -0.01489999999999947    2.4851    -2.490059
    H    -0.045    -0.00010000000000021103    -2.510266
    H    -0.01429999999999998    -2.4854000000000003    -2.490059
    H    -0.00609999999999955    -4.609612    -1.272349
    H    0.03215000000000057    -4.649003    1.211689
    H    0.006200000000000205    -2.4878210000000003    2.443647
    H    -0.795585    0.0009999999999998899    2.144687
    H    0.9235850000000001    0.0009999999999998899    2.146887

