%NProcShared=48
%mem = 190GB
#n M062X/6-311++G(d,p) TD(NStates=1) EmpiricalDispersion=GD3 SP
 
 SP_100

1 1
    C    0.011600000000000055    2.490855    1.360431
    C    0.010600000000000609    3.704158    0.671989
    C    0.0037999999999998035    3.6875609999999996    -0.71383
    C    -0.007549999999999946    2.467206    -1.407538
    C    -0.00804999999999989    -2.468206    -1.407538
    C    0.0008000000000001339    -3.692561    -0.71383
    C    0.005849999999999467    -3.705908    0.671989
    C    0.0020999999999999908    -2.493855    1.360431
    C    0.004249999999999999    0.010999999999999899    1.453369
    C    -0.012200000000000003    -0.0004999999999999449    -1.429189
    C    -0.0014500000000000624    1.2583550000000001    0.677065
    C    -0.005999999999999894    1.238821    -0.730804
    C    -0.0021999999999999797    -1.2581049999999996    0.677065
    C    -0.004000000000000115    -1.2373210000000001    -0.730804
    H    0.007599999999999385    2.486221    2.443647
    H    0.011200000000000099    4.637753    1.211689
    H    -0.000700000000000589    4.605912    -1.272349
    H    -0.004399999999999293    2.4715999999999996    -2.490059
    H    -0.011250000000000003    -0.0002500000000005276    -2.510266
    H    -0.002900000000000569    -2.472350000000001    -2.490059
    H    -0.0021999999999993136    -4.6121620000000005    -1.272349
    H    0.005450000000000177    -4.641503    1.211689
    H    -0.0033999999999994035    -2.489471    2.443647
    H    -0.843585    0.0024999999999997247    2.1430369999999996
    H    0.8755850000000001    0.0024999999999997247    2.148537

