%NProcShared=48
%mem = 190GB
#n M062X/6-311++G(d,p) TD(NStates=1) EmpiricalDispersion=GD3 SP
 
 SP_150

1 1
    C    -0.041100000000000136    2.4944550000000003    1.360431
    C    -0.04935000000000023    3.680358    0.671989
    C    -0.013799999999999812    3.6466609999999995    -0.71383
    C    0.04679999999999951    2.4358560000000002    -1.407538
    C    0.04679999999999951    -2.435856    -1.407538
    C    -0.013799999999999812    -3.6466609999999995    -0.71383
    C    -0.04935000000000023    -3.680358    0.671989
    C    -0.041100000000000136    -2.4944550000000003    1.360431
    C    -0.02625    0.0    1.453369
    C    0.0732    0.0    -1.429189
    C    0.010950000000000126    1.2850049999999997    0.677065
    C    0.030000000000000027    1.2338710000000002    -0.730804
    C    0.010950000000000126    -1.285005    0.677065
    C    0.030000000000000027    -1.2338710000000002    -0.730804
    H    -0.012599999999999945    2.4894210000000006    2.443647
    H    -0.04995000000000083    4.619503    1.211689
    H    0.008699999999999708    4.610612000000001    -1.272349
    H    0.021899999999999586    2.441    -2.490059
    H    0.0675    0.0    -2.510266
    H    0.021899999999999586    -2.441    -2.490059
    H    0.008699999999999708    -4.610612000000001    -1.272349
    H    -0.04995000000000083    -4.619503    1.211689
    H    -0.012599999999999945    -2.489421    2.443647
    H    -0.9555850000000001    0.0    2.145787
    H    0.763585    0.0    2.145787

