%NProcShared=48
%mem = 190GB
#n M062X/6-311++G(d,p) TD(NStates=1) EmpiricalDispersion=GD3 SP
 
 SP_25

1 1
    C    0.0009500000000000064    2.492355    1.360431
    C    0.0004750000000001142    3.701333    0.671989
    C    0.00029999999999996696    3.6833609999999997    -0.71383
    C    4.999999999999449e-05    2.4630560000000004    -1.407538
    C    -4.999999999999449e-05    -2.463256    -1.407538
    C    -0.00029999999999996696    -3.684361    -0.71383
    C    -0.0004750000000001142    -3.701683    0.671989
    C    -0.0009500000000000064    -2.4929550000000003    1.360431
    C    -2.5000000000000282e-05    0.0021999999999999797    1.453369
    C    0.0    -9.999999999998899e-05    -1.429189
    C    7.499999999999174e-05    1.2620799999999999    0.677065
    C    -0.00019999999999997797    1.237621    -0.730804
    C    -7.499999999999174e-05    -1.26203    0.677065
    C    0.00019999999999997797    -1.237321    -0.730804
    H    0.0010999999999998789    2.4877460000000005    2.443647
    H    0.0005749999999999922    4.636378    1.211689
    H    0.00014999999999987246    4.608637    -1.272349
    H    -0.00014999999999987246    2.467475    -2.490059
    H    0.0    -5.0000000000105516e-05    -2.510266
    H    0.00014999999999987246    -2.4676250000000004    -2.490059
    H    -0.00014999999999987246    -4.6098870000000005    -1.272349
    H    -0.0005749999999999922    -4.637128    1.211689
    H    -0.0010999999999998789    -2.488396    2.443647
    H    -0.859585    0.0004999999999999449    2.1452370000000003
    H    0.859585    0.0004999999999999449    2.1463369999999995

