%NProcShared=48
%mem = 190GB
#n M062X/6-311++G(d,p) TD(NStates=1) EmpiricalDispersion=GD3 SP
 
 SP_50

1 1
    C    -0.01760000000000006    2.493555    1.360431
    C    -0.02080000000000015    3.6927830000000004    0.671989
    C    -0.005899999999999905    3.668611    -0.71383
    C    0.019474999999999798    2.4518310000000003    -1.407538
    C    0.019524999999999793    -2.4517310000000005    -1.407538
    C    -0.005599999999999938    -3.6681109999999997    -0.71383
    C    -0.020325000000000037    -3.692608    0.671989
    C    -0.016650000000000054    -2.493255    1.360431
    C    -0.010925    -0.0010999999999999899    1.453369
    C    0.0305    4.999999999999449e-05    -1.429189
    C    0.004525000000000057    1.271605    0.677065
    C    0.0126    1.2358959999999999    -0.730804
    C    0.0046000000000000485    -1.27163    0.677065
    C    0.012400000000000022    -1.236046    -0.730804
    H    -0.005799999999999916    2.488796    2.443647
    H    -0.02110000000000034    4.629752999999999    1.211689
    H    0.003549999999999942    4.610137    -1.272349
    H    0.009199999999999764    2.456525    -2.490059
    H    0.028125    2.5000000000052758e-05    -2.510266
    H    0.009049999999999891    -2.4564500000000002    -2.490059
    H    0.0036999999999998145    -4.6095120000000005    -1.272349
    H    -0.02052500000000035    -4.629377999999999    1.211689
    H    -0.0047000000000000375    -2.488471    2.443647
    H    -0.8995850000000001    -0.00024999999999997247    2.1460619999999997
    H    0.819585    -0.00024999999999997247    2.145512

