%NProcShared=48
%mem = 190GB
#n M062X/6-311++G(d,p) TD(NStates=1) EmpiricalDispersion=GD3 SP
 
 SP_75

1 1
    C    -0.020550000000000068    2.493555    1.360431
    C    -0.024675000000000114    3.6909330000000002    0.671989
    C    -0.006899999999999906    3.6652609999999997    -0.71383
    C    0.023399999999999754    2.4495060000000004    -1.407538
    C    0.023399999999999754    -2.4495060000000004    -1.407538
    C    -0.006899999999999906    -3.6652609999999997    -0.71383
    C    -0.024675000000000114    -3.6909330000000002    0.671989
    C    -0.020550000000000068    -2.493555    1.360431
    C    -0.013125    0.0    1.453369
    C    0.0366    0.0    -1.429189
    C    0.005475000000000063    1.27353    0.677065
    C    0.015000000000000013    1.235671    -0.730804
    C    0.005475000000000063    -1.27353    0.677065
    C    0.015000000000000013    -1.235671    -0.730804
    H    -0.006299999999999972    2.488746    2.443647
    H    -0.024975000000000414    4.628127999999999    1.211689
    H    0.004349999999999854    4.609937    -1.272349
    H    0.010949999999999793    2.454275    -2.490059
    H    0.03375    0.0    -2.510266
    H    0.010949999999999793    -2.454275    -2.490059
    H    0.004349999999999854    -4.609937    -1.272349
    H    -0.024975000000000414    -4.628127999999999    1.211689
    H    -0.006299999999999972    -2.4887460000000003    2.443647
    H    -0.9075850000000001    0.0    2.145787
    H    0.811585    0.0    2.145787

