%NProcShared=48
%mem = 190GB
#n M062X/6-311++G(d,p) TD(NStates=1) EmpiricalDispersion=GD3 SP
 
 SP_-50

1 1
    C    -0.01750000000000007    2.4944550000000003    1.360431
    C    -0.018350000000000533    3.6951579999999997    0.671989
    C    -0.005799999999999805    3.6734609999999996    -0.71383
    C    0.015399999999999858    2.4544559999999995    -1.407538
    C    0.015799999999999814    -2.453656    -1.407538
    C    -0.0034000000000000696    -3.6694609999999996    -0.71383
    C    -0.014549999999999619    -3.6937580000000003    0.671989
    C    -0.00990000000000002    -2.492055    1.360431
    C    -0.008649999999999998    -0.008799999999999919    1.453369
    C    0.0244    0.00039999999999995595    -1.429189
    C    0.003350000000000075    1.2696049999999997    0.677065
    C    0.01079999999999992    1.2356710000000002    -0.730804
    C    0.003950000000000009    -1.2698049999999999    0.677065
    C    0.009200000000000097    -1.236871    -0.730804
    H    -0.008599999999999497    2.4898210000000005    2.443647
    H    -0.018950000000000244    4.632503    1.211689
    H    0.002300000000000413    4.612212    -1.272349
    H    0.007899999999999352    2.4590000000000005    -2.490059
    H    0.022500000000000003    0.00020000000000042206    -2.510266
    H    0.006700000000000372    -2.4583999999999993    -2.490059
    H    0.0034999999999993925    -4.6072120000000005    -1.272349
    H    -0.014350000000000307    -4.629503    1.211689
    H    0.00019999999999953388    -2.487221    2.443647
    H    -0.8915850000000001    -0.0019999999999997797    2.147987
    H    0.827585    -0.0019999999999997797    2.1435869999999997

