%NProcShared=48
%mem = 190GB
#n M062X/6-311++G(d,p) TD(NStates=1) EmpiricalDispersion=GD3 SP
 
 SP_-50

1 1
    C    0.021500000000000075    2.491455    1.360431
    C    0.025150000000000228    3.7119079999999998    0.671989
    C    0.007199999999999873    3.701961    -0.71383
    C    -0.02334999999999976    2.476706    -1.407538
    C    -0.02344999999999975    -2.4769059999999996    -1.407538
    C    0.006599999999999939    -3.702961    -0.71383
    C    0.0242    -3.7122580000000003    0.671989
    C    0.019600000000000062    -2.492055    1.360431
    C    0.0131    0.0021999999999999797    1.453369
    C    -0.036599999999999994    -9.999999999998899e-05    -1.429189
    C    -0.005400000000000071    1.2506049999999997    0.677065
    C    -0.015199999999999991    1.239421    -0.730804
    C    -0.005550000000000055    -1.2505549999999999    0.677065
    C    -0.014800000000000035    -1.239121    -0.730804
    H    0.007399999999999851    2.4870710000000003    2.443647
    H    0.025550000000000406    4.645003    1.211689
    H    -0.0041999999999999815    4.607962000000001    -1.272349
    H    -0.011099999999999666    2.48075    -2.490059
    H    -0.03375    -5.0000000000105516e-05    -2.510266
    H    -0.01079999999999992    -2.4809    -2.490059
    H    -0.0044999999999997264    -4.609212    -1.272349
    H    0.02440000000000042    -4.645753    1.211689
    H    0.0052000000000000934    -2.487721    2.443647
    H    -0.811585    0.0004999999999999449    2.145237
    H    0.9075850000000001    0.0004999999999999449    2.146337

