%NProcShared=48
%mem = 190GB
#n M062X/6-311++G(d,p) TD(NStates=1) EmpiricalDispersion=GD3 SP
 
 SP_25

1 1
    C    0.008750000000000036    2.491755    1.360431
    C    0.009175000000000266    3.7046829999999997    0.671989
    C    0.0028999999999999027    3.6890609999999997    -0.71383
    C    -0.007699999999999929    2.467506    -1.407538
    C    -0.007899999999999907    -2.4679059999999997    -1.407538
    C    0.0017000000000000348    -3.691061    -0.71383
    C    0.007274999999999809    -3.705383    0.671989
    C    0.00495000000000001    -2.4929550000000003    1.360431
    C    0.004324999999999999    0.0043999999999999595    1.453369
    C    -0.0122    -0.00019999999999997797    -1.429189
    C    -0.0016750000000000376    1.2582799999999998    0.677065
    C    -0.00539999999999996    1.238371    -0.730804
    C    -0.0019750000000000045    -1.2581799999999999    0.677065
    C    -0.0046000000000000485    -1.237771    -0.730804
    H    0.0042999999999997485    2.487196    2.443647
    H    0.009475000000000122    4.638878    1.211689
    H    -0.0011500000000002064    4.607787    -1.272349
    H    -0.003949999999999676    2.471825    -2.490059
    H    -0.011250000000000001    -0.00010000000000021103    -2.510266
    H    -0.003350000000000186    -2.4721250000000006    -2.490059
    H    -0.0017499999999996962    -4.610287    -1.272349
    H    0.0071750000000001535    -4.640378    1.211689
    H    -9.999999999976694e-05    -2.488496    2.443647
    H    -0.843585    0.0009999999999998899    2.1446870000000002
    H    0.8755850000000001    0.0009999999999998899    2.1468869999999995

