%NProcShared=48
%mem = 190GB
#n M062X/6-311++G(d,p) TD(NStates=1) EmpiricalDispersion=GD3 SP
 
 SP_0

1 1
    C    0.007800000000000029    2.492055    1.360431
    C    0.008700000000000152    3.704858    0.671989
    C    0.0025999999999999357    3.689561    -0.71383
    C    -0.007749999999999924    2.467606    -1.407538
    C    -0.007849999999999913    -2.467806    -1.407538
    C    0.0020000000000000018    -3.6905609999999998    -0.71383
    C    0.007749999999999924    -3.705208    0.671989
    C    0.005900000000000016    -2.492655    1.360431
    C    0.00435    0.0021999999999999797    1.453369
    C    -0.012199999999999999    -9.999999999998899e-05    -1.429189
    C    -0.0017500000000000293    1.258255    0.677065
    C    -0.005199999999999982    1.238221    -0.730804
    C    -0.0019000000000000128    -1.2582049999999998    0.677065
    C    -0.0048000000000000265    -1.237921    -0.730804
    H    0.0031999999999998696    2.487521    2.443647
    H    0.00890000000000013    4.639253    1.211689
    H    -0.0013000000000000789    4.608412    -1.272349
    H    -0.0037999999999998035    2.4718999999999998    -2.490059
    H    -0.01125    -5.0000000000105516e-05    -2.510266
    H    -0.0035000000000000586    -2.4720500000000003    -2.490059
    H    -0.0015999999999998238    -4.609662    -1.272349
    H    0.007750000000000146    -4.640003    1.211689
    H    0.001000000000000112    -2.4881710000000004    2.443647
    H    -0.843585    0.0004999999999999449    2.145237
    H    0.8755850000000001    0.0004999999999999449    2.146337

