%NProcShared=48
%mem = 190GB
#n M062X/6-311++G(d,p) TD(NStates=1) EmpiricalDispersion=GD3 SP
 
 SP_-25

1 1
    C    0.02245000000000008    2.491155    1.360431
    C    0.025625000000000342    3.711733    0.671989
    C    0.00749999999999984    3.701461    -0.71383
    C    -0.023299999999999765    2.4766060000000003    -1.407538
    C    -0.023499999999999743    -2.4770060000000003    -1.407538
    C    0.006299999999999972    -3.703461    -0.71383
    C    0.023724999999999885    -3.712433    0.671989
    C    0.018650000000000055    -2.492355    1.360431
    C    0.013075    0.0043999999999999595    1.453369
    C    -0.0366    -0.00019999999999997797    -1.429189
    C    -0.00532500000000008    1.2506300000000001    0.677065
    C    -0.01539999999999997    1.2395709999999998    -0.730804
    C    -0.005625000000000047    -1.25053    0.677065
    C    -0.014600000000000057    -1.238971    -0.730804
    H    0.00849999999999973    2.486746    2.443647
    H    0.026125000000000398    4.644628    1.211689
    H    -0.004050000000000109    4.607337    -1.272349
    H    -0.011249999999999538    2.4806749999999997    -2.490059
    H    -0.03375    -0.00010000000000021103    -2.510266
    H    -0.010650000000000048    -2.4809750000000004    -2.490059
    H    -0.004649999999999599    -4.609837000000001    -1.272349
    H    0.02382500000000043    -4.646127999999999    1.211689
    H    0.004100000000000215    -2.488046    2.443647
    H    -0.811585    0.0009999999999998899    2.144687
    H    0.9075850000000001    0.0009999999999998899    2.146887

