%NProcShared=48
%mem = 190GB
#n M062X/6-311++G(d,p) TD(NStates=1) EmpiricalDispersion=GD3 SP
 
 SP_150

1 1
    C    -0.021600000000000064    2.4929550000000003    1.360431
    C    -0.027599999999999847    3.688733    0.671989
    C    -0.007299999999999973    3.6609109999999996    -0.71383
    C    0.0274249999999997    2.446981    -1.407538
    C    0.027174999999999727    -2.447481    -1.407538
    C    -0.008799999999999808    -3.6634109999999995    -0.71383
    C    -0.029975000000000418    -3.6896079999999998    0.671989
    C    -0.026350000000000096    -2.4944550000000003    1.360431
    C    -0.015375    0.005499999999999949    1.453369
    C    0.0427    -0.00024999999999997247    -1.429189
    C    0.006575000000000053    1.2755049999999999    0.677065
    C    0.01700000000000007    1.235746    -0.730804
    C    0.006200000000000094    -1.2753799999999997    0.677065
    C    0.01799999999999996    -1.2349960000000002    -0.730804
    H    -0.0046000000000002705    2.4880460000000006    2.443647
    H    -0.027700000000000502    4.6257530000000004    1.211689
    H    0.005449999999999511    4.608487    -1.272349
    H    0.012400000000000078    2.451875    -2.490059
    H    0.039375    -0.0001250000000002638    -2.510266
    H    0.01314999999999944    -2.4522500000000003    -2.490059
    H    0.0047000000000001485    -4.611612000000001    -1.272349
    H    -0.030575000000000463    -4.627628    1.211689
    H    -0.010099999999999665    -2.4896710000000004    2.443647
    H    -0.9155850000000001    0.0012499999999998623    2.1444119999999995
    H    0.803585    0.0012499999999998623    2.1471620000000002

