%NProcShared=48
%mem = 190GB
#n M062X/6-311++G(d,p) TD(NStates=1) EmpiricalDispersion=GD3 SP
 
 SP_100

1 1
    C    -0.0040000000000000036    2.492055    1.360431
    C    -0.006799999999999695    3.697458    0.671989
    C    -0.0014000000000000679    3.6761609999999996    -0.71383
    C    0.007949999999999902    2.4583060000000003    -1.407538
    C    0.007649999999999935    -2.458906    -1.407538
    C    -0.0031999999999998696    -3.6791609999999997    -0.71383
    C    -0.00965000000000038    -3.698508    0.671989
    C    -0.009700000000000042    -2.493855    1.360431
    C    -0.004450000000000001    0.006599999999999939    1.453369
    C    0.012199999999999999    -0.00029999999999996696    -1.429189
    C    0.0020499999999999963    1.265955    0.677065
    C    0.0044000000000000705    1.2373210000000001    -0.730804
    C    0.0016000000000000458    -1.2658049999999998    0.677065
    C    0.005599999999999938    -1.2364210000000002    -0.730804
    H    0.0011999999999996458    2.487321    2.443647
    H    -0.006600000000000161    4.632753    1.211689
    H    0.0018999999999995687    4.6076120000000005    -1.272349
    H    0.0032000000000003137    2.4628999999999994    -2.490059
    H    0.01125    -0.00015000000000031655    -2.510266
    H    0.0040999999999995485    -2.4633500000000006    -2.490059
    H    0.001000000000000334    -4.611362000000001    -1.272349
    H    -0.010050000000000114    -4.635002999999999    1.211689
    H    -0.005399999999999627    -2.4892710000000005    2.443647
    H    -0.8755850000000001    0.0014999999999998348    2.1441369999999997
    H    0.843585    0.0014999999999998348    2.147437

