%NProcShared=48
%mem = 190GB
#n M062X/6-311++G(d,p) TD(NStates=1) EmpiricalDispersion=GD3 SP
 
 SP_-150

1 1
    C    0.013800000000000034    2.4929550000000003    1.360431
    C    0.018899999999999695    3.710933    0.671989
    C    0.0047000000000000375    3.701111    -0.71383
    C    -0.019674999999999776    2.474881    -1.407538
    C    -0.019324999999999815    -2.4741810000000006    -1.407538
    C    0.006799999999999806    -3.6976109999999998    -0.71383
    C    0.022225000000000494    -3.709708    0.671989
    C    0.02045000000000008    -2.490855    1.360431
    C    0.011025    -0.007699999999999929    1.453369
    C    -0.0305    0.00034999999999996145    -1.429189
    C    -0.004825000000000024    1.252405    0.677065
    C    -0.011800000000000088    1.238446    -0.730804
    C    -0.0043000000000000815    -1.25258    0.677065
    C    -0.013199999999999934    -1.239496    -0.730804
    H    0.001400000000000401    2.488646    2.443647
    H    0.018800000000000372    4.645252999999999    1.211689
    H    -0.004149999999999432    4.610887    -1.272349
    H    -0.008600000000000274    2.478875000000001    -2.490059
    H    -0.028125000000000004    0.0001750000000003693    -2.510266
    H    -0.009649999999999381    -2.47835    -2.490059
    H    -0.0031000000000003247    -4.606512    -1.272349
    H    0.022825000000000317    -4.642628    1.211689
    H    0.009099999999999553    -2.486371    2.443647
    H    -0.819585    -0.0017499999999998073    2.147712
    H    0.8995850000000001    -0.0017499999999998073    2.143862

