%NProcShared=48
%mem = 190GB
#n M062X/6-311++G(d,p) TD(NStates=1) EmpiricalDispersion=GD3 SP
 
 SP_-100

1 1
    C    -0.0038000000000000256    2.493855    1.360431
    C    -0.0019000000000004569    3.702208    0.671989
    C    -0.0011999999999998678    3.685861    -0.71383
    C    -0.00019999999999997797    2.463556    -1.407538
    C    0.00019999999999997797    -2.4627560000000006    -1.407538
    C    0.0011999999999998678    -3.6818609999999996    -0.71383
    C    0.0019000000000004569    -3.700808    0.671989
    C    0.0038000000000000256    -2.491455    1.360431
    C    0.00010000000000000113    -0.008799999999999919    1.453369
    C    0.0    0.00039999999999995595    -1.429189
    C    -0.00029999999999996696    1.261955    0.677065
    C    0.0007999999999999119    1.2368709999999998    -0.730804
    C    0.00029999999999996696    -1.2621550000000001    0.677065
    C    -0.0007999999999999119    -1.2380709999999997    -0.730804
    H    -0.004399999999999515    2.4893710000000002    2.443647
    H    -0.0022999999999999687    4.638253    1.211689
    H    -0.0005999999999994898    4.611762000000001    -1.272349
    H    0.0005999999999994898    2.4678500000000008    -2.490059
    H    0.0    0.00020000000000042206    -2.510266
    H    -0.0005999999999994898    -2.4672499999999995    -2.490059
    H    0.0005999999999994898    -4.606762    -1.272349
    H    0.0022999999999999687    -4.635253    1.211689
    H    0.004399999999999515    -2.486771    2.443647
    H    -0.859585    -0.0019999999999997797    2.147987
    H    0.859585    -0.0019999999999997797    2.1435869999999997

