%NProcShared=48
%mem = 190GB
#n M062X/6-311++G(d,p) TD(NStates=1) EmpiricalDispersion=GD3 SP
 
 SP_-150

1 1
    C    0.041100000000000136    2.490855    1.360431
    C    0.04935000000000023    3.722658    0.671989
    C    0.013799999999999812    3.721061    -0.71383
    C    -0.04679999999999951    2.490456    -1.407538
    C    -0.04679999999999951    -2.4904560000000004    -1.407538
    C    0.013799999999999812    -3.721061    -0.71383
    C    0.04935000000000023    -3.722658    0.671989
    C    0.041100000000000136    -2.490855    1.360431
    C    0.02625    0.0    1.453369
    C    -0.0732    0.0    -1.429189
    C    -0.010950000000000126    1.2391050000000001    0.677065
    C    -0.030000000000000027    1.2410709999999998    -0.730804
    C    -0.010950000000000126    -1.239105    0.677065
    C    -0.030000000000000027    -1.2410709999999998    -0.730804
    H    0.012599999999999945    2.4867209999999997    2.443647
    H    0.04995000000000083    4.6540029999999994    1.211689
    H    -0.008699999999999708    4.607912    -1.272349
    H    -0.021899999999999586    2.4941000000000004    -2.490059
    H    -0.0675    0.0    -2.510266
    H    -0.021899999999999586    -2.4941000000000004    -2.490059
    H    -0.008699999999999708    -4.607912    -1.272349
    H    0.04995000000000083    -4.6540029999999994    1.211689
    H    0.012599999999999945    -2.486721    2.443647
    H    -0.763585    0.0    2.145787
    H    0.9555850000000001    0.0    2.145787

