%NProcShared=48
%mem = 190GB
#n M062X/6-311++G(d,p) TD(NStates=1) EmpiricalDispersion=GD3 SP
 
 SP_-75

1 1
    C    0.03225000000000011    2.490855    1.360431
    C    0.03772500000000034    3.717108    0.671989
    C    0.01079999999999981    3.711011    -0.71383
    C    -0.03502499999999964    2.4834810000000003    -1.407538
    C    -0.03517499999999962    -2.483781    -1.407538
    C    0.009899999999999909    -3.712511    -0.71383
    C    0.0363    -3.7176329999999997    0.671989
    C    0.029400000000000093    -2.491755    1.360431
    C    0.01965    0.0032999999999999696    1.453369
    C    -0.054900000000000004    -0.00014999999999998348    -1.429189
    C    -0.008100000000000107    1.24488    0.677065
    C    -0.022799999999999987    1.2403959999999998    -0.730804
    C    -0.008325000000000082    -1.244805    0.677065
    C    -0.022200000000000053    -1.239946    -0.730804
    H    0.011099999999999777    2.486571    2.443647
    H    0.03832500000000061    4.649128    1.211689
    H    -0.006299999999999972    4.607311999999999    -1.272349
    H    -0.0166499999999995    2.48735    -2.490059
    H    -0.050625    -7.500000000015827e-05    -2.510266
    H    -0.01619999999999988    -2.4875750000000005    -2.490059
    H    -0.00674999999999959    -4.609187    -1.272349
    H    0.03660000000000063    -4.650252999999999    1.211689
    H    0.00780000000000014    -2.487546    2.443647
    H    -0.787585    0.0007499999999999174    2.1449619999999996
    H    0.9315850000000001    0.0007499999999999174    2.146612

