%NProcShared=48
%mem = 190GB
#n M062X/6-311++G(d,p) TD(NStates=1) EmpiricalDispersion=GD3 SP
 
 SP_-2

1 1
    C    0.0    2.454655    1.356431
    C    0.0    3.641508    0.6059889999999999
    C    -0.0    3.637861    -0.81183
    C    0.0    2.519156    -1.443538
    C    0.0    -2.359156    -1.379538
    C    0.0    -3.709861    -0.6838299999999999
    C    0.0    -3.785508    0.669989
    C    -0.0    -2.582655    1.356431
    C    0.0    -0.032    1.483369
    C    0.0    0.11599999999999999    -1.399189
    C    0.0    1.304055    0.7470650000000001
    C    0.0    1.269471    -0.708804
    C    -0.0    -1.232055    0.659065
    C    0.0    -1.197471    -0.700804
    H    0.0    2.526071    2.439647
    H    0.0    4.586753    1.131689
    H    -0.0    4.585262000000001    -1.332349
    H    0.0    2.4495500000000003    -2.526059
    H    0.0    0.1    -2.478266
    H    0.0    -2.3775500000000003    -2.462059
    H    0.0    -4.593262    -1.316349
    H    0.0    -4.730753    1.187689
    H    0.0    -2.566071    2.439647
    H    -0.859585    -0.176    2.1757869999999997
    H    0.859585    -0.176    2.1757869999999997

