%NProcShared=48
%mem = 190GB
#n M062X/6-311++G(d,p) TD(NStates=1) EmpiricalDispersion=GD3 SP
 
 SP_-2

1 1
    C    0.0    2.614655    1.356431
    C    -0.0    3.821508    0.685989
    C    0.0    3.727861    -0.65183
    C    0.0    2.319156    -1.363538
    C    -0.0    -2.559156    -1.459538
    C    0.0    -3.619861    -0.84383
    C    0.0    -3.605508    0.5899889999999999
    C    0.0    -2.422655    1.356431
    C    -0.0    0.048    1.483369
    C    0.0    -0.174    -1.399189
    C    0.0    1.2140549999999999    0.637065
    C    0.0    1.179471    -0.698804
    C    0.0    -1.322055    0.7690650000000001
    C    -0.0    -1.287471    -0.710804
    H    0.0    2.5760709999999998    2.439647
    H    -0.0    4.766753    1.201689
    H    0.0    4.595262000000001    -1.312349
    H    0.0    2.3595500000000005    -2.446059
    H    0.0    -0.15    -2.478266
    H    -0.0    -2.46755    -2.542059
    H    0.0    -4.583262    -1.336349
    H    0.0    -4.550753    1.117689
    H    -0.0    -2.516071    2.439647
    H    -0.859585    0.264    2.1757869999999997
    H    0.859585    0.264    2.1757869999999997

