%NProcShared=48
%mem = 190GB
#n M062X/6-311++G(d,p) TD(NStates=1) EmpiricalDispersion=GD3 SP
 
 SP_-4

1 1
    C    0.0    2.576655    1.352431
    C    -0.0    3.761508    0.6199889999999999
    C    0.0    3.6818609999999996    -0.74983
    C    0.0    2.375156    -1.399538
    C    -0.0    -2.455156    -1.431538
    C    0.0    -3.645861    -0.81383
    C    0.0    -3.689508    0.5879889999999999
    C    0.0    -2.512655    1.352431
    C    -0.0    0.016    1.513369
    C    0.0    -0.057999999999999996    -1.369189
    C    0.0    1.256055    0.707065
    C    0.0    1.211471    -0.676804
    C    0.0    -1.292055    0.7510650000000001
    C    -0.0    -1.247471    -0.680804
    H    0.0    2.614071    2.435647
    H    -0.0    4.716752999999999    1.121689
    H    0.0    4.571262    -1.372349
    H    0.0    2.3415500000000002    -2.482059
    H    0.0    -0.05    -2.446266
    H    -0.0    -2.37755    -2.514059
    H    0.0    -4.567262    -1.380349
    H    0.0    -4.644753    1.093689
    H    -0.0    -2.5940710000000005    2.435647
    H    -0.859585    0.088    2.205787
    H    0.859585    0.088    2.205787

