%NProcShared=48
%mem = 190GB
#n M062X/6-311++G(d,p) TD(NStates=1) EmpiricalDispersion=GD3 SP
 
 SP_6

1 1
    C    -0.0    2.4466550000000002    1.372431
    C    0.0    3.701508    0.7899889999999999
    C    0.0    3.7318609999999994    -0.57983
    C    0.0    2.495156    -1.379538
    C    0.0    -2.5751560000000002    -1.411538
    C    0.0    -3.695861    -0.64383
    C    0.0    -3.629508    0.7579889999999999
    C    0.0    -2.382655    1.372431
    C    0.0    0.016    1.3633689999999998
    C    0.0    -0.057999999999999996    -1.5191890000000001
    C    0.0    1.226055    0.577065
    C    0.0    1.231471    -0.806804
    C    0.0    -1.262055    0.6210650000000001
    C    0.0    -1.267471    -0.810804
    H    -0.0    2.324071    2.455647
    H    0.0    4.606752999999999    1.381689
    H    0.0    4.671262    -1.112349
    H    0.0    2.6115500000000003    -2.462059
    H    0.0    -0.05    -2.606266
    H    0.0    -2.64755    -2.494059
    H    -0.0    -4.667262    -1.120349
    H    0.0    -4.534753    1.353689
    H    0.0    -2.3040710000000004    2.455647
    H    -0.859585    0.088    2.055787
    H    0.859585    0.088    2.055787

