%NProcShared=48
%mem = 190GB
#n M062X/6-311++G(d,p) TD(NStates=1) EmpiricalDispersion=GD3 SP
 
 SP_-6

1 1
    C    0.0    2.602655    1.348431
    C    -0.0    3.773508    0.585989
    C    0.0    3.671861    -0.7838299999999999
    C    0.0    2.351156    -1.403538
    C    -0.0    -2.431156    -1.435538
    C    0.0    -3.6358610000000002    -0.84783
    C    0.0    -3.701508    0.553989
    C    0.0    -2.538655    1.348431
    C    -0.0    0.016    1.543369
    C    0.0    -0.057999999999999996    -1.339189
    C    0.0    1.262055    0.733065
    C    0.0    1.207471    -0.650804
    C    0.0    -1.298055    0.777065
    C    -0.0    -1.243471    -0.654804
    H    0.0    2.672071    2.431647
    H    -0.0    4.738752999999999    1.0696890000000001
    H    0.0    4.551262    -1.4243489999999999
    H    0.0    2.2875500000000004    -2.486059
    H    0.0    -0.05    -2.414266
    H    -0.0    -2.32355    -2.518059
    H    0.0    -4.547262000000001    -1.4323489999999999
    H    0.0    -4.666753    1.041689
    H    -0.0    -2.6520710000000003    2.431647
    H    -0.859585    0.088    2.2357869999999997
    H    0.859585    0.088    2.2357869999999997

