%NProcShared=48
%mem = 190GB
#n M062X/6-311++G(d,p) TD(NStates=1) EmpiricalDispersion=GD3 SP
 
 SP_-6

1 1
    C    0.0    2.570655    1.348431
    C    0.0    3.737508    0.569989
    C    -0.0    3.653861    -0.8158299999999999
    C    0.0    2.391156    -1.419538
    C    0.0    -2.391156    -1.419538
    C    0.0    -3.653861    -0.8158299999999999
    C    0.0    -3.737508    0.569989
    C    -0.0    -2.570655    1.348431
    C    0.0    0.0    1.543369
    C    0.0    0.0    -1.339189
    C    0.0    1.280055    0.755065
    C    0.0    1.225471    -0.652804
    C    -0.0    -1.280055    0.755065
    C    0.0    -1.225471    -0.652804
    H    0.0    2.662071    2.431647
    H    0.0    4.7027529999999995    1.055689
    H    -0.0    4.549262000000001    -1.4283489999999999
    H    0.0    2.30555    -2.502059
    H    0.0    0.0    -2.414266
    H    0.0    -2.30555    -2.502059
    H    0.0    -4.549262000000001    -1.4283489999999999
    H    0.0    -4.7027529999999995    1.055689
    H    0.0    -2.662071    2.431647
    H    -0.859585    0.0    2.2357869999999997
    H    0.859585    -0.0    2.2357869999999997

