%NProcShared=48
%mem = 190GB
#n M062X/6-311++G(d,p) TD(NStates=1) EmpiricalDispersion=GD3 SP
 
 SP_-2

1 1
    C    0.0    2.486655    1.356431
    C    0.0    3.677508    0.6219889999999999
    C    -0.0    3.6558610000000002    -0.77983
    C    0.0    2.479156    -1.427538
    C    0.0    -2.399156    -1.395538
    C    0.0    -3.691861    -0.71583
    C    0.0    -3.749508    0.6539889999999999
    C    -0.0    -2.550655    1.356431
    C    0.0    -0.016    1.483369
    C    0.0    0.057999999999999996    -1.399189
    C    0.0    1.286055    0.7250650000000001
    C    0.0    1.251471    -0.706804
    C    -0.0    -1.250055    0.681065
    C    0.0    -1.215471    -0.702804
    H    0.0    2.536071    2.439647
    H    0.0    4.622753    1.145689
    H    -0.0    4.587262000000001    -1.328349
    H    0.0    2.43155    -2.510059
    H    0.0    0.05    -2.478266
    H    0.0    -2.3955500000000005    -2.478059
    H    0.0    -4.591262    -1.320349
    H    0.0    -4.6947529999999995    1.173689
    H    0.0    -2.5560709999999998    2.439647
    H    -0.859585    -0.088    2.1757869999999997
    H    0.859585    -0.088    2.1757869999999997

