%NProcShared=48
%mem = 190GB
#n M062X/6-311++G(d,p) TD(NStates=1) EmpiricalDispersion=GD3 SP
 
 SP_-4

1 1
    C    0.0    2.448655    1.352431
    C    0.0    3.617508    0.5559889999999998
    C    -0.0    3.609861    -0.87783
    C    0.0    2.535156    -1.463538
    C    0.0    -2.295156    -1.367538
    C    0.0    -3.7178609999999996    -0.68583
    C    0.0    -3.833508    0.6519889999999999
    C    -0.0    -2.640655    1.352431
    C    0.0    -0.048    1.513369
    C    0.0    0.174    -1.369189
    C    0.0    1.328055    0.7950650000000001
    C    0.0    1.283471    -0.684804
    C    -0.0    -1.220055    0.663065
    C    0.0    -1.175471    -0.672804
    H    0.0    2.5740710000000004    2.435647
    H    0.0    4.572753    1.0656889999999999
    H    -0.0    4.563262    -1.388349
    H    0.0    2.41355    -2.546059
    H    0.0    0.15    -2.446266
    H    0.0    -2.30555    -2.450059
    H    0.0    -4.575262    -1.364349
    H    0.0    -4.788752999999999    1.149689
    H    0.0    -2.634071    2.435647
    H    -0.859585    -0.264    2.205787
    H    0.859585    -0.264    2.205787

