%NProcShared=16
%mem = 64GB
#n M062X/cc-pvtz TD(NStates=1) EmpiricalDispersion=GD3 SP
 
 SP_0

1 1
    C    2.4927    1.3691    0.0
    C    3.7015    0.6807    0.0
    C    3.6839    -0.7051    0.0
    C    2.4632    -1.3989    0.0
    C    -2.4632    -1.3989    0.0
    C    -3.6839    -0.7051    0.0
    C    -3.7015    0.6807    0.0
    C    -2.4927    1.3691    0.0
    C    0.0    1.4621    0.0
    C    0.0    -1.4205    0.0
    C    1.2621    0.6857    0.0
    C    1.2375    -0.7221    0.0
    C    -1.2621    0.6857    0.0
    C    -1.2375    -0.7221    0.0
    H    2.4881    2.4523    0.0
    H    4.6368    1.2204    0.0
    H    4.6093    -1.2637    0.0
    H    2.4675    -2.4814    0.0
    H    0.0    -2.5016    0.0
    H    -2.4675    -2.4814    0.0
    H    -4.6093    -1.2637    0.0
    H    -4.6368    1.2204    0.0
    H    -2.4881    2.4523    0.0
    H    0.0    2.1545    -0.8596
    H    0.0    2.1545    0.8596

