$molecule
1 1
  C   -0.0000000    2.4926549    1.3604310
  C   -0.0000000    3.7015080    0.6719886
  C   -0.0000000    3.6838611   -0.7138298
  C   -0.0000000    2.4631562   -1.4075381
  C   -0.0000000   -2.4631562   -1.4075381
  C   -0.0000000   -3.6838611   -0.7138298
  C   -0.0000000   -3.7015080    0.6719886
  C   -0.0000000   -2.4926549    1.3604310
  C    0.0000000   -0.0000000    1.4533694
  C    0.0000000    0.0000000   -1.4291887
  C   -0.0000000    1.2620555    0.6770653
  C   -0.0000000    1.2374709   -0.7308044
  C   -0.0000000   -1.2620555    0.6770653
  C   -0.0000000   -1.2374709   -0.7308044
  H   -0.0000000    2.4880712    2.4436473
  H   -0.0000000    4.6367530    1.2116887
  H   -0.0000000    4.6092621   -1.2723489
  H   -0.0000000    2.4675498   -2.4900588
  H    0.0000000    0.0000000   -2.5102663
  H   -0.0000000   -2.4675498   -2.4900588
  H   -0.0000000   -4.6092621   -1.2723489
  H   -0.0000000   -4.6367530    1.2116887
  H   -0.0000000   -2.4880712    2.4436473
  H   -0.8595855    0.0000000    2.1457874
  H    0.8595855   -0.0000000    2.1457874
$end

$rem
   BASIS  =  6-311++G(d,p)
   EXCHANGE  =  M06-2X
   CIS_N_ROOTS = 2
   CIS_TRIPLETS = FALSE
   MAKE_CUBE_FILES = TRUE
   PLOTS = TRUE 
$end

$plots
 grid_range  (-8,8) (-8,8) (-8,8)
 grid_points 40 40 40
 total_density 0-2
 transition_density 1-2
$end

