echo

start molecule
memory stack 12000 mb heap 1000 mb global 6000 mb

title "Title"
charge 1

geometry units angstroms print xyz autosym
   C        3.66511       -0.78612       -0.00006
   C        2.45321       -1.43882       -0.00007
   C        1.24264       -0.69315       -0.00002
   C        1.27792        0.73302        0.00003
   C        2.51500        1.36722        0.00005
   C        3.69109        0.61879        0.00001
   C        0.00000       -1.35058        0.00003
   C        0.00000        1.51851        0.00005
   C       -1.27792        0.73302        0.00001
   C       -1.24264       -0.69315        0.00006
   C       -2.45321       -1.43882        0.00006
   H       -2.40689       -2.52195        0.00010
   C       -3.66511       -0.78612        0.00002
   C       -3.69109        0.61879       -0.00007
   C       -2.51500        1.36722       -0.00008
   H        0.00000       -2.43780        0.00003
   H        4.59227       -1.34508       -0.00010
   H        2.40689       -2.52195       -0.00013
   H        2.56929        2.45018        0.00009
   H        4.64555        1.13283        0.00003
   H       -0.00001        2.19342        0.86739
   H       -4.59227       -1.34508        0.00003
   H       -4.64555        1.13283       -0.00014
   H       -2.56929        2.45018       -0.00016
   H        0.00001        2.19350       -0.86725
end

basis
  * library 6-31+G
end

dft
  xc b3lyp
  mult 1
end

tddft
  cis
  nroots 3
  notriplet
  target 1
  civecs
  grad
    root 1
  end
end

task tddft optimize

