echo

start molecule

title "Title"
charge 1

geometry units angstroms print xyz autosym
    C           0        0.000000    3.717380    0.691216
    C           0        0.000000    2.456935    1.385869
    C           0        0.000000    1.233897    0.713242
    C           0       -0.000000    1.267414   -0.674155
    C           0       -0.000000    2.538267   -1.371635
    C           0        0.000000    3.750912   -0.691246
    C           0       -0.000000   -0.050964    1.427248
    C           0       -0.000000    0.014437   -1.481799
    C           0        0.000000   -1.276108   -0.703076
    C           0       -0.000000   -1.259061    0.733202
    C           0       -0.000000   -2.508561    1.423492
    H           0       -0.000000   -2.504220    2.507368
    C           0        0.000000   -3.701473    0.731244
    C           0       -0.000000   -3.700179   -0.671493
    C           0       -0.000000   -2.489752   -1.373087
    H           0       -0.000000   -0.043871    2.509203
    H           0        0.000000    4.631455    1.272483
    H           0        0.000000    2.473257    2.470804
    H           0       -0.000000    2.524915   -2.456389
    H           0        0.000000    4.688708   -1.230523
    H           0       -0.866173    0.047317   -2.162831
    H           0       -0.000000   -4.640849    1.270377
    H           0       -0.000000   -4.636793   -1.215072
    H           0       -0.000000   -2.505604   -2.457932
    H           0        0.866173    0.047317   -2.162831
end

basis
  * library 6-31+G*
end

dft
  xc b3lyp
  mult 1
end

tddft
  cis
  nroots 3
  notriplet
  target 1
end

task tddft energy
