start molecule
  
title "Title"
charge 1

geometry units angstroms print xyz autosym
    C           0       -0.000000    3.706055    0.717748
    C           0       -0.000000    2.480186    1.412163
    C           0       -0.000000    1.246903    0.732624
    C           0       -0.000000    1.271155   -0.679449
    C           0       -0.000000    2.509187   -1.365386
    C           0       -0.000000    3.722322   -0.673766
    C           0        0.000000   -0.000000    1.435070
    C           0        0.000000    0.000000   -1.461537
    C           0        0.000000   -1.271155   -0.679449
    C           0        0.000000   -1.246903    0.732624
    C           0        0.000000   -2.480186    1.412163
    H           0        0.000000   -2.486596    2.496730
    C           0        0.000000   -3.706055    0.717748
    C           0        0.000000   -3.722322   -0.673766
    C           0        0.000000   -2.509187   -1.365386
    H           0        0.000000   -0.000000    2.517017
    H           0       -0.000000    4.633653    1.277116
    H           0       -0.000000    2.486596    2.496730
    H           0       -0.000000    2.509533   -2.450312
    H           0       -0.000000    4.659568   -1.215087
    H           0       -0.863171    0.000000   -2.151180
    H           0        0.000000   -4.633653    1.277116
    H           0        0.000000   -4.659568   -1.215087
    H           0        0.000000   -2.509533   -2.450312
    H           0        0.863171    0.000000   -2.151180
end

basis
  * library 6-31+G*
end

dft
  xc b3lyp
  mult 1
end

tddft
  cis
  nroots 3
  notriplet
  target 1
end

task tddft energy


