%NProcShared=16
%mem = 64GB
%Chk=check_sp_6
#n M062X/cc-pvtz TD EmpiricalDispersion=GD3 SP
 
 SP_6

1 1
    C    2.5021202241700964    1.3689234383606266    0.0
    C    3.713840835973822    0.686151358642542    0.0
    C    3.6876356522254143    -0.6947913870709824    0.0
    C    2.450766976813053    -1.3918328449169355    0.0
    C    -2.475242087121324    -1.4055140318043176    -0.0
    C    -3.679302565666736    -0.7146113402825077    -0.0
    C    -3.6883440785927917    0.6751531058071012    -0.0
    C    -2.4809232683822438    1.370078343747224    -0.0
    C    0.006591844591193108    1.4590916654327937    0.0
    C    -0.019206964967869944    -1.4201457606088423    0.0
    C    1.2584709094139594    0.6795401625751428    0.0
    C    1.23028293494033    -0.7214092889928633    0.0
    C    -1.2655158322722022    0.6924484512422636    -0.0
    C    -1.2451989822026122    -0.7229195498830288    -0.0
    H    2.490015571382037    2.4523211161124108    0.0
    H    4.648929809884806    1.2252739059492432    0.0
    H    4.607447686931801    -1.2630836634191123    0.0
    H    2.4619087313808525    -2.4746637809825582    0.0
    H    -0.017812194616364123    -2.501260180046789    0.0
    H    -2.473102429743256    -2.4878474701649447    -0.0
    H    -4.610548163700435    -1.2631902700701827    -0.0
    H    -4.623513007492079    1.2157326106784327    -0.0
    H    -2.4840367150344993    2.4532450404216886    -0.0
    H    0.02593206787290119    2.1540524572833073    -0.8588082178921496
    H    0.02593206787290119    2.1540524572833073    0.8588082178921496

