%NProcShared=16
%mem = 64GB
%Chk=check_sp_0
#n M062X/cc-pvtz TD EmpiricalDispersion=GD3 SP
 
 SP_0

1 1
    C    2.49265    1.36911    0.0
    C    3.70151    0.68067    0.0
    C    3.68386    -0.70515    0.0
    C    2.46316    -1.39886    0.0
    C    -2.46316    -1.39886    -0.0
    C    -3.68386    -0.70515    -0.0
    C    -3.70151    0.68067    -0.0
    C    -2.49265    1.36911    -0.0
    C    0.0    1.46205    0.0
    C    0.0    -1.42051    0.0
    C    1.26206    0.68575    0.0
    C    1.23747    -0.72212    0.0
    C    -1.26206    0.68575    -0.0
    C    -1.23747    -0.72212    -0.0
    H    2.48807    2.45233    0.0
    H    4.63675    1.22037    0.0
    H    4.60926    -1.26367    0.0
    H    2.46755    -2.48138    0.0
    H    0.0    -2.50158    0.0
    H    -2.46755    -2.48138    -0.0
    H    -4.60926    -1.26367    -0.0
    H    -4.63675    1.22037    -0.0
    H    -2.48807    2.45233    -0.0
    H    0.0    2.15447    -0.85959
    H    0.0    2.15447    0.85959

