%NProcShared=16
%mem = 64GB
%Chk=check_sp_4
#n M062X/cc-pvtz TD EmpiricalDispersion=GD3 SP
 
 SP_4

1 1
    C    2.498963482780064    1.3689856255737511    0.0
    C    3.7097305573158814    0.684324239095028    0.0
    C    3.6863771014836098    -0.6982442580473216    0.0
    C    2.4548979845420353    -1.3941752299446237    0.0
    C    -2.4712147247475493    -1.4032960212028784    -0.0
    C    -3.6808217104444907    -0.7114575601883385    -0.0
    C    -3.692732719061861    0.6769920705380674    -0.0
    C    -2.4848321789214958    1.3697555624981492    -0.0
    C    0.004394563060795405    1.4600777769551958    0.0
    C    -0.012804643311913295    -1.4202671737392283    0.0
    C    1.2596672729426397    0.6816101083834285    0.0
    C    1.2326786232935534    -0.7216461926619088    0.0
    C    -1.264363888181468    0.690215634161509    -0.0
    C    -1.2426226548017414    -0.7226530332553526    -0.0
    H    2.4893670475880247    2.4523240774082735    0.0
    H    4.644869873256537    1.223639270632829    0.0
    H    4.608051791287868    -1.2632791089460749    0.0
    H    2.463789154253902    -2.476902520655039    0.0
    H    -0.011874796410909414    -2.5013667866978593    0.0
    H    -2.4712516198288372    -2.4856916467766297    -0.0
    H    -4.610118775800291    -1.2633501800467886    -0.0
    H    -4.627925338328053    1.2172784071189553    -0.0
    H    -2.485381143356333    2.4529400269477923    -0.0
    H    0.01728804524860079    2.1541916381888715    -0.8590688119280997
    H    0.01728804524860079    2.1541916381888715    0.8590688119280997

