%NProcShared=16
%mem = 64GB
%Chk=check_sp_8
#n M062X/cc-pvtz TD EmpiricalDispersion=GD3 SP
 
 SP_8

1 1
    C    2.5052769655601286    1.3688612511475022    0.0
    C    3.7179511146317625    0.687978478190056    0.0
    C    3.688894202967219    -0.6913385160946433    0.0
    C    2.4466359690840704    -1.3894904598892475    0.0
    C    -2.479269449495099    -1.4077320424057567    -0.0
    C    -3.6777834208889812    -0.717765120376677    -0.0
    C    -3.6839554381237223    0.6733141410761349    -0.0
    C    -2.4770143578429917    1.3704011249962984    -0.0
    C    0.00878912612159081    1.4581055539103915    0.0
    C    -0.02560928662382659    -1.4200243474784564    0.0
    C    1.2572745458852792    0.677470216766857    0.0
    C    1.2278872465871067    -0.7211723853238177    0.0
    C    -1.2666677763629364    0.6946812683230181    -0.0
    C    -1.2477753096034827    -0.723186066510705    -0.0
    H    2.490664095176049    2.4523181548165476    0.0
    H    4.652989746513075    1.2269085412656577    0.0
    H    4.606843582575735    -1.26288821789215    0.0
    H    2.460028308507803    -2.472425041310078    0.0
    H    -0.023749592821818828    -2.5011535733957184    0.0
    H    -2.4749532396576743    -2.4900032935532592    -0.0
    H    -4.61097755160058    -1.263030360093577    -0.0
    H    -4.619100676656105    1.2141868142379104    -0.0
    H    -2.4826922867126653    2.453550053895585    -0.0
    H    0.03457609049720158    2.1539132763777427    -0.8585476238561994
    H    0.03457609049720158    2.1539132763777427    0.8585476238561994

