%NProcShared=16
%mem = 64GB
%Chk=check_sp_1
#n M062X/cc-pvtz TD EmpiricalDispersion=GD3 SP
 
 SP_1

1 1
    C    2.4942283706950157    1.3690789063934379    0.0
    C    3.7035651393289704    0.681583559773757    0.0
    C    3.6844892753709027    -0.7034235645118304    0.0
    C    2.461094496135509    -1.397688807486156    0.0
    C    -2.465173681186887    -1.3999690053007197    -0.0
    C    -3.683100427611123    -0.7067268900470847    -0.0
    C    -3.699315679765465    0.6797505176345169    -0.0
    C    -2.490695544730374    1.3692713906245373    -0.0
    C    0.0010986407651988512    1.461556944238799    0.0
    C    -0.0032011608279783237    -1.420449293434807    0.0
    C    1.2614618182356598    0.6847150270958571    0.0
    C    1.2362721558233885    -0.7220015481654772    0.0
    C    -1.262635972045367    0.6868664085403773    -0.0
    C    -1.2387581637004355    -0.7222532583138381    -0.0
    H    2.4883942618970063    2.4523285193520685    0.0
    H    4.638779968314134    1.221187317658207    0.0
    H    4.608957947821967    -1.2635722772365188    0.0
    H    2.4666097885634755    -2.4802606301637597    0.0
    H    -0.0029686991027273535    -2.501526696674465    0.0
    H    -2.4684754049572093    -2.4824579116941576    -0.0
    H    -4.609474693950072    -1.2635900450116972    -0.0
    H    -4.634543834582013    1.2195971017797387    -0.0
    H    -2.487397785839083    2.452482506736948    -0.0
    H    0.004322011312150198    2.154400409547218    -0.8594597029820249
    H    0.004322011312150198    2.154400409547218    0.8594597029820249

