%NProcShared=16
%mem = 64GB
%Chk=check_sp_7
#n M062X/cc-pvtz TD EmpiricalDispersion=GD3 SP
 
 SP_7

1 1
    C    2.5036985948651123    1.3688923447540644    0.0
    C    3.715895975302792    0.687064918416299    0.0
    C    3.6882649275963164    -0.6930649515828128    0.0
    C    2.448701472948562    -1.3906616524030915    0.0
    C    -2.4772557683082113    -1.4066230371050372    -0.0
    C    -3.678542993277859    -0.7161882303295923    -0.0
    C    -3.686149758358257    0.674233623441618    -0.0
    C    -2.4789688131126177    1.3702397343717612    -0.0
    C    0.007690485356391959    1.4585986096715926    0.0
    C    -0.022408125795848267    -1.4200850540436494    0.0
    C    1.2578727276496193    0.6785051896709999    0.0
    C    1.2290850907637183    -0.7212908371583404    0.0
    C    -1.2660918043175693    0.6935648597826408    -0.0
    C    -1.2464871459030473    -0.7230528081968669    -0.0
    H    2.490339833279043    2.452319635464479    0.0
    H    4.65095977819894    1.2260912236074506    0.0
    H    4.607145634753768    -1.2629859406556312    0.0
    H    2.460968519944328    -2.473544411146318    0.0
    H    -0.020780893719091476    -2.5012068767212536    0.0
    H    -2.474027834700465    -2.4889253818591017    -0.0
    H    -4.610762857650508    -1.2631103150818799    -0.0
    H    -4.621306842074092    1.2149597124581717    -0.0
    H    -2.4833645008735825    2.4533975471586364    -0.0
    H    0.030254079185051384    2.1539828668305248    -0.8586779208741745
    H    0.030254079185051384    2.1539828668305248    0.8586779208741745

