%NProcShared=16
%mem = 64GB
%Chk=check_sp_3
#n M062X/cc-pvtz TD EmpiricalDispersion=GD3 SP
 
 SP_3

1 1
    C    2.497385112085048    1.3690167191803133    0.0
    C    3.707675417986911    0.683410679321271    0.0
    C    3.6857478261127072    -0.6999706935354912    0.0
    C    2.4569634884065263    -1.3953464224584677    0.0
    C    -2.4692010435606617    -1.4021870159021588    -0.0
    C    -3.6815812828333683    -0.7098806701412539    -0.0
    C    -3.6949270392963958    0.6779115529035505    -0.0
    C    -2.486786634191122    1.369594171873612    -0.0
    C    0.003295922295596554    1.4605708327163969    0.0
    C    -0.009603482483934972    -1.4203278803044213    0.0
    C    1.2602654547069798    0.6826450812875714    0.0
    C    1.233876467470165    -0.7217646444964316    0.0
    C    -1.2637879161361012    0.6890992256211318    -0.0
    C    -1.241334491101306    -0.7225197749415144    -0.0
    H    2.4890427856910184    2.4523255580562053    0.0
    H    4.642839904942403    1.2228219529746216    0.0
    H    4.608353843465901    -1.2633768317095562    0.0
    H    2.464729365690426    -2.4780218904912794    0.0
    H    -0.008906097308182061    -2.5014200900233945    0.0
    H    -2.470326214871628    -2.484613735082472    -0.0
    H    -4.6099040818502175    -1.2634301350350914    -0.0
    H    -4.630131503746039    1.2180513053392164    -0.0
    H    -2.4860533575172497    2.452787520210844    -0.0
    H    0.012966033936450594    2.1542612286416536    -0.8591991089460748
    H    0.012966033936450594    2.1542612286416536    0.8591991089460748

