%NProcShared=16
%mem = 64GB
%Chk=check_sp_9
#n M062X/cc-pvtz TD EmpiricalDispersion=GD3 SP
 
 SP_9

1 1
    C    2.5068553362551445    1.3688301575409398    0.0
    C    3.720006253960733    0.6888920379638129    0.0
    C    3.6895234783381214    -0.6896120806064736    0.0
    C    2.4445704652195794    -1.3883192673754035    0.0
    C    -2.481283130681986    -1.4088410477064763    -0.0
    C    -3.677023848500104    -0.7193420104237616    -0.0
    C    -3.6817611178891876    0.6723946587106517    -0.0
    C    -2.4750599025733653    1.3705625156208359    -0.0
    C    0.009887766886789662    1.4576124981491905    0.0
    C    -0.028810447451804912    -1.4199636409132637    0.0
    C    1.2566763641209393    0.6764352438627143    0.0
    C    1.226689402410495    -0.7210539334892949    0.0
    C    -1.2672437484083034    0.6957976768633953    -0.0
    C    -1.249063473303918    -0.7233193248245432    -0.0
    H    2.4909883570730553    2.452316674168616    0.0
    H    4.655019714827209    1.227725858923865    0.0
    H    4.606541530397702    -1.2627904951286686    0.0
    H    2.4590880970712785    -2.4713056714738375    0.0
    H    -0.02671829192454618    -2.501100270070183    0.0
    H    -2.475878644614884    -2.4910812052474167    -0.0
    H    -4.6111922455506535    -1.2629504051052742    -0.0
    H    -4.616894511238118    1.2134139160176494    -0.0
    H    -2.4820200725517485    2.4537025606325327    -0.0
    H    0.03889810180935178    2.1538436859249606    -0.8584173268382244
    H    0.03889810180935178    2.1538436859249606    0.8584173268382244

