%NProcShared=16
%mem = 64GB
%Chk=check_sp_12
#n M062X/cc-pvtz TD EmpiricalDispersion=GD3 SP
 
 SP_12

1 1
    C    2.511590448340193    1.368736876721253    0.0
    C    3.726171671947644    0.691632717285084    0.0
    C    3.6914113044508285    -0.6844327741419648    0.0
    C    2.438373953626106    -1.3848056898338712    0.0
    C    -2.487324174242648    -1.4121680636086351    -0.0
    C    -3.674745131333472    -0.7240726805650154    -0.0
    C    -3.675178157185584    0.6696362116142023    -0.0
    C    -2.4691965367644872    1.3710466874944476    -0.0
    C    0.013183689182386216    1.456133330865587    0.0
    C    -0.03841392993573989    -1.4197815212176847    0.0
    C    1.254881818827919    0.6733303251502857    0.0
    C    1.22309586988066    -0.7206985779857265    0.0
    C    -1.2689716645444045    0.6991469024845272    -0.0
    C    -1.252927964405224    -0.7237190997660576    -0.0
    H    2.4919611427640738    2.452312232224821    0.0
    H    4.661109619769612    1.2301778118984867    0.0
    H    4.605635373863603    -1.2624973268382247    0.0
    H    2.456267462761705    -2.4679475619651163    0.0
    H    -0.035624389232728246    -2.5009403600935776    0.0
    H    -2.4786548594865114    -2.4943149403298888    -0.0
    H    -4.611836327400871    -1.2627105401403655    -0.0
    H    -4.610276014984158    1.2110952213568658    -0.0
    H    -2.480003430068998    2.4541600808433772    -0.0
    H    0.05186413574580238    2.1536349145666143    -0.8580264357842992
    H    0.05186413574580238    2.1536349145666143    0.8580264357842992

