%NProcShared=8
%mem = 32GB
%Chk=check_sp_14
#n M062X/6-311++G(d,p) TD SP pop=reg formcheck
 
 SP_-14

1 1
    C    2.4724949240869876    1.3725127615921229    0.0
    C    3.6822414936397245    0.6708940828887967    0.0
    C    3.677563602790314    -0.7308071686499801    0.0
    C    2.499788128846948    -1.4143667747230206    0.0
    C    -2.438031871153059    -1.390525986869102    -0.0
    C    -3.7071491588018057    -0.6829819737382025    -0.0
    C    -3.7373912679524017    0.693011440295444    -0.0
    C    -2.523766979893311    1.3730872384078805    -0.0
    C    -0.011920393926959377    1.4656746655724249    0.0
    C    0.044952810832991394    -1.424386380796063    0.0
    C    1.2795563972096864    0.7052824004924083    0.0
    C    1.2519059171112035    -0.7264760032827253    0.0
    C    -1.2495399835863767    0.6698084571194092    -0.0
    C    -1.229357702092737    -0.7203003775133361    -0.0
    H    2.486977324579399    2.4574119039803053    0.0
    H    4.620570447271233    1.2125894173163752    0.0
    H    4.616843996717275    -1.269318764874848    0.0
    H    2.488813635617567    -2.4980014402954454    0.0
    H    0.038346327451784984    -2.5072827615921196    0.0
    H    -2.45836636438244    -2.4758840828887934    -0.0
    H    -4.622588764874845    -1.263573996717278    -0.0
    H    -4.673278695116953    1.232983344275751    -0.0
    H    -2.503062675420594    2.458704476815761    -0.0
    H    -0.0662084530160033    2.1568236192039403    -0.8633391423881825
    H    -0.06635207221994256    2.1568236192039403    0.8633391423881825

