%NProcShared=8
%mem = 32GB
%Chk=check_sp_8
#n M062X/6-311++G(d,p) TD SP pop=reg formcheck
 
 SP_-8

1 1
    C    2.48363567090685    1.3726358637669274    0.0
    C    3.694120853508414    0.675756618793598    0.0
    C    3.6839649158801793    -0.72065123922856    0.0
    C    2.486554645055399    -1.409319585556012    0.0
    C    -2.451265354944605    -1.3956962782109155    -0.0
    C    -3.700870947886746    -0.69332255642183    -0.0
    C    -3.7256350102585154    0.6883951087402537    -0.0
    C    -2.5129339885104636    1.3729641362330745    -0.0
    C    -0.006811653672548216    1.4661055231842428    0.0
    C    0.02568732047599508    -1.4244479318834646    0.0
    C    1.2731550841198207    0.6975885145670905    0.0
    C    1.247043381206402    -0.7251834304472716    0.0
    C    -1.256002847763644    0.6773176897825195    -0.0
    C    -1.2341586869101355    -0.721654501436192    -0.0
    H    2.4904241854739424    2.4577196594173176    0.0
    H    4.631957398440705    1.2170210956093572    0.0
    H    4.618136569552728    -1.268149294214199    0.0
    H    2.4822892203528952    -2.4933851087402545    0.0
    H    0.021912187115305706    -2.5074058637669254    0.0
    H    -2.4648907796471087    -2.4807466187935963    -0.0
    H    -4.621419294214197    -1.2648665695527304    -0.0
    H    -4.662076397209687    1.228674768157572    -0.0
    H    -2.4996158145260536    2.458458272466149    -0.0
    H    -0.03783340172343046    2.1567620681165374    -0.8635237956503901
    H    -0.03791546983996718    2.1567620681165374    0.8635237956503901

