%NProcShared=8
%mem = 32GB
%Chk=check_sp_18
#n M062X/6-311++G(d,p) TD SP pop=reg formcheck
 
 SP_-18

1 1
    C    2.4650677595404127    1.3724306934755863    0.0
    C    3.6743219203939312    0.6676523922855957    0.0
    C    3.6732960607304035    -0.7375777882642601    0.0
    C    2.508610451374647    -1.4177315675010267    0.0
    C    -2.4292095486253613    -1.3870791259745598    -0.0
    C    -3.711334632745179    -0.6760882519491175    -0.0
    C    -3.7452287730816596    0.6960889946655708    -0.0
    C    -2.530988974148543    1.3731693065244177    -0.0
    C    -0.015326220763233485    1.4653874271645464    0.0
    C    0.05779647107098893    -1.4243453467377953    0.0
    C    1.2838239392695967    0.7104116577759535    0.0
    C    1.2551476077144044    -0.7273377185063611    0.0
    C    -1.2452314074681987    0.6648023020106689    -0.0
    C    -1.2261570455478048    -0.7193976282314322    -0.0
    H    2.48467941731637    2.457206733688964    0.0
    H    4.612979146491586    1.2096349651210536    0.0
    H    4.615982281493639    -1.2700984119819476    0.0
    H    2.4931632457940145    -2.5010789946655727    0.0
    H    0.04930242100943783    -2.5072006934755824    0.0
    H    -2.4540167542059943    -2.4726423922855916    -0.0
    H    -4.623368411981944    -1.2627122814936431    -0.0
    H    -4.680746893721796    1.235855728354537    -0.0
    H    -2.505360582683621    2.4588686130488355    -0.0
    H    -0.08512515387771852    2.156864653262209    -0.8632160402133776
    H    -0.08530980713992614    2.156864653262209    0.8632160402133776

