%NProcShared=8
%mem = 32GB
%Chk=check_sp_19
#n M062X/6-311++G(d,p) TD SP pop=reg formcheck
 
 SP_-19

1 1
    C    2.463210968403769    1.3724101764464522    0.0
    C    3.6723420270824834    0.6668419696347955    0.0
    C    3.672229175215426    -0.7392704431678301    0.0
    C    2.5108160320065718    -1.418572765695528    0.0
    C    -2.427003967993437    -1.3862174107509242    -0.0
    C    -3.712381001231022    -0.6743648215018463    -0.0
    C    -3.7471881493639736    0.6968583832581026    -0.0
    C    -2.532794472712351    1.373189823553552    -0.0
    C    -0.01617767747230201    1.4653156175625766    0.0
    C    0.06100738613048832    -1.4243350882232284    0.0
    C    1.2848908247845743    0.7116939720968398    0.0
    C    1.2559580303652045    -0.72755314731227    0.0
    C    -1.2441542634386542    0.6635507632334838    -0.0
    C    -1.2253568814115716    -0.7191719409109562    -0.0
    H    2.4841049405006133    2.4571554411161287    0.0
    H    4.611081321296674    1.2088963520722233    0.0
    H    4.61576685268773    -1.2702933237587224    0.0
    H    2.4942506483381264    -2.5018483832581047    0.0
    H    0.05204144439885105    -2.5071801764464476    0.0
    H    -2.452929351661883    -2.471831969634791    -0.0
    H    -4.623563323758718    -1.2624968526877345    -0.0
    H    -4.682613943373007    1.2365738243742335    -0.0
    H    -2.505935059499378    2.458909647107104    -0.0
    H    -0.08985432909314733    2.156874911776776    -0.8631852646696764
    H    -0.09004924086992205    2.156874911776776    0.8631852646696764

