%NProcShared=8
%mem = 32GB
%Chk=check_sp_17
#n M062X/6-311++G(d,p) TD SP pop=reg formcheck
 
 SP_-17

1 1
    C    2.4669245506770565    1.3724512105047206    0.0
    C    3.6763018137053796    0.6684628149363959    0.0
    C    3.674362946245381    -0.7358851333606901    0.0
    C    2.5064048707427222    -1.4168903693065251    0.0
    C    -2.431415129257286    -1.3879408411981953    -0.0
    C    -3.7102882642593356    -0.6778116823963888    -0.0
    C    -3.743269396799345    0.6953196060730391    -0.0
    C    -2.529183475584735    1.3731487894952834    -0.0
    C    -0.014474764054164958    1.465459236766516    0.0
    C    0.054585556011489546    -1.4243556052523623    0.0
    C    1.2827570537546191    0.7091293434550673    0.0
    C    1.254337185063604    -0.7271222897004521    0.0
    C    -1.2463085514977432    0.6660538407878539    -0.0
    C    -1.2269572096840378    -0.7196233155519081    -0.0
    H    2.4852538941321276    2.4572580262617993    0.0
    H    4.614876971686498    1.2103735781698841    0.0
    H    4.616197710299548    -1.2699035002051728    0.0
    H    2.4920758432499026    -2.5003096060730408    0.0
    H    0.04656339762002463    -2.5072212105047167    0.0
    H    -2.4551041567501057    -2.473452814936392    -0.0
    H    -4.623173500205169    -1.2629277102995518    -0.0
    H    -4.678879844070585    1.2351376323348404    -0.0
    H    -2.5047861058678644    2.458827578990567    -0.0
    H    -0.08039597866228973    2.1568543947476417    -0.8632468157570788
    H    -0.08057037340993026    2.1568543947476417    0.8632468157570788

