%NProcShared=8
%mem = 32GB
%Chk=check_sp_1
#n M062X/6-311++G(d,p) TD SP pop=reg formcheck
 
 SP_-1

1 1
    C    2.496633208863356    1.372779482970866    0.0
    C    3.707980106688552    0.6814295773491997    0.0
    C    3.6914331144850223    -0.70880265490357    0.0
    C    2.471115580631925    -1.4034311981945016    0.0
    C    -2.466704419368076    -1.4017282847763644    -0.0
    C    -3.693546368485843    -0.7053865695527287    -0.0
    C    -3.7119193762823146    0.6830093885925317    -0.0
    C    -2.500295498563808    1.3728205170291343    -0.0
    C    -0.000851456709068527    1.4666081903980304    0.0
    C    0.003210915059499385    -1.4245197414854331    0.0
    C    1.2656868855149777    0.6886123143208863    0.0
    C    1.2413704226508004    -0.723675428805909    0.0
    C    -1.2635428559704556    0.6860784612228149    -0.0
    C    -1.239759835863767    -0.723234312679524    -0.0
    H    2.4944455231842424    2.458078707427165    0.0
    H    4.645242174805088    1.2221913869511698    0.0
    H    4.619644571194091    -1.2667849117767749    0.0
    H    2.474677402544112    -2.487999388592532    0.0
    H    0.002739023389413213    -2.5075494829708656    0.0
    H    -2.4725025974558887    -2.4864195773491993    -0.0
    H    -4.620054911776775    -1.2663745711940915    -0.0
    H    -4.649007049651211    1.2236480960196965    -0.0
    H    -2.4955944768157567    2.4581710340582688    -0.0
    H    -0.004729175215428807    2.1566902585145673    -0.8637392244562988
    H    -0.004739433729995897    2.1566902585145673    0.8637392244562988

