%NProcShared=8
%mem = 32GB
%Chk=check_sp_10
#n M062X/6-311++G(d,p) TD SP pop=reg formcheck
 
 SP_-10

1 1
    C    2.4799220886335624    1.3725948297086592    0.0
    C    3.6901610668855174    0.6741357734919976    0.0
    C    3.681831144850224    -0.7240365490357    0.0
    C    2.4909658063192484    -1.4110019819450148    0.0
    C    -2.4468541936807564    -1.3939728477636444    -0.0
    C    -3.7029636848584326    -0.6898756955272876    -0.0
    C    -3.7295537628231443    0.6899338859253171    -0.0
    C    -2.5165449856380793    1.3730051702913433    -0.0
    C    -0.008514567090685269    1.4659619039803036    0.0
    C    0.03210915059499385    -1.4244274148543308    0.0
    C    1.2752888551497759    0.7001531432088631    0.0
    C    1.2486642265080024    -0.7256142880590895    0.0
    C    -1.253848559704555    0.6748146122281494    -0.0
    C    -1.2325583586376694    -0.72120312679524    -0.0
    H    2.4892752318424276    2.457617074271647    0.0
    H    4.628161748050881    1.2155438695116965    0.0
    H    4.617705711940911    -1.2685391177677487    0.0
    H    2.484464025441119    -2.494923885925318    0.0
    H    0.02739023389413213    -2.507364829708657    0.0
    H    -2.462715974558886    -2.479125773491995    -0.0
    H    -4.6218091177677465    -1.2644357119409129    -0.0
    H    -4.665810496512109    1.230110960196965    -0.0
    H    -2.500764768157567    2.4585403405826867    -0.0
    H    -0.04729175215428807    2.1567825851456717    -0.8634622445629876
    H    -0.04739433729995897    2.1567825851456717    0.8634622445629876

