%NProcShared=48
%mem = 190GB
#n M062X/6-311++G(d,p) TD(NStates=1) EmpiricalDispersion=GD3 SP
 
 SP_50

1 1
    C    2.471155    1.361631    0.0
    C    3.6763579999999996    0.6615889999999999    0.0
    C    3.6766609999999997    -0.73193    0.0
    C    2.486506    -1.4210880000000001    0.0
    C    -2.439706    -1.393788    0.0
    C    -3.6904609999999995    -0.6947299999999998    0.0
    C    -3.725708    0.6827389999999999    0.0
    C    -2.512255    1.3598309999999998    0.0
    C    -0.0131    1.451169    0.0
    C    0.036599999999999994    -1.429089    0.0
    C    1.267455    0.688515    0.0
    C    1.252671    -0.732754    0.0
    C    -1.2565049999999998    0.665565    0.0
    C    -1.2226709999999998    -0.729154    0.0
    H    2.4806710000000005    2.444647    0.0
    H    4.611202999999999    1.203439    0.0
    H    4.613462    -1.2710489999999999    0.0
    H    2.4786499999999996    -2.503259    0.0
    H    0.03375    -2.5102160000000002    0.0
    H    -2.45675    -2.4767089999999996    0.0
    H    -4.604762000000001    -1.272399    0.0
    H    -4.661153    1.2206890000000001    0.0
    H    -2.4932710000000005    2.443297    0.0
    H    -0.048    2.145287    -0.8590350000000001
    H    -0.048    2.145287    0.8590350000000001

