%NProcShared=48
%mem = 190GB
#n M062X/6-311++G(d,p) TD(NStates=1) EmpiricalDispersion=GD3 SP
 
 SP_-25

1 1
    C    2.5190050000000004    1.358631    0.0
    C    3.7314830000000003    0.683889    0.0
    C    3.6926609999999993    -0.6933800000000001    0.0
    C    2.435981    -1.3918629999999999    0.0
    C    -2.4905809999999997    -1.4237129999999998    0.0
    C    -3.6765609999999995    -0.7367800000000001    0.0
    C    -3.673908    0.659214    0.0
    C    -2.4710550000000002    1.360731    0.0
    C    0.01525    1.4588689999999997    0.0
    C    -0.0427    -1.4294390000000001    0.0
    C    1.255855    0.6637400000000002    0.0
    C    1.219471    -0.728329    0.0
    C    -1.26863    0.6905150000000001    0.0
    C    -1.2544710000000001    -0.732529    0.0
    H    2.498171    2.4420469999999996    0.0
    H    4.6673279999999995    1.2208140000000003    0.0
    H    4.604562    -1.274699    0.0
    H    2.4544000000000006    -2.4747590000000006    0.0
    H    -0.039375    -2.5103910000000003    0.0
    H    -2.4799500000000005    -2.5057340000000003    0.0
    H    -4.614712    -1.2731239999999997    0.0
    H    -4.609052999999999    1.2006890000000001    0.0
    H    -2.4834709999999998    2.4436219999999995    0.0
    H    0.056    2.147037    -0.86096
    H    0.056    2.147037    0.86096

