%NProcShared=48
%mem = 190GB
#n M062X/6-311++G(d,p) TD(NStates=1) EmpiricalDispersion=GD3 SP
 
 SP_-25

1 1
    C    2.5034050000000003    1.3598309999999998    0.0
    C    3.714083    0.677189    0.0
    C    3.687461    -0.70478    0.0
    C    2.4514810000000002    -1.400763    0.0
    C    -2.474881    -1.4144129999999997    0.0
    C    -3.680561    -0.72338    0.0
    C    -3.6894080000000002    0.666614    0.0
    C    -2.4828550000000003    1.360731    0.0
    C    0.00655    1.4544689999999998    0.0
    C    -0.018299999999999997    -1.4292390000000001    0.0
    C    1.2593549999999998    0.67134    0.0
    C    1.2298710000000002    -0.7298290000000001    0.0
    C    -1.26483    0.6828150000000001    0.0
    C    -1.2448709999999998    -0.7316290000000001    0.0
    H    2.491771    2.4431469999999997    0.0
    H    4.649528    1.215814    0.0
    H    4.607162000000001    -1.272999    0.0
    H    2.4620000000000006    -2.483459    0.0
    H    -0.016875    -2.5102910000000005    0.0
    H    -2.47295    -2.496734    0.0
    H    -4.611512    -1.2723239999999998    0.0
    H    -4.624552999999999    1.207189    0.0
    H    -2.4854710000000004    2.443822    0.0
    H    0.024    2.1460369999999998    -0.8598600000000001
    H    0.024    2.1460369999999998    0.8598600000000001

