%NProcShared=48
%mem = 190GB
#n M062X/6-311++G(d,p) TD(NStates=1) EmpiricalDispersion=GD3 SP
 
 SP_-50

1 1
    C    2.510255    1.3595309999999998    0.0
    C    3.7223080000000004    0.680714    0.0
    C    3.689761    -0.69858    0.0
    C    2.443681    -1.396213    0.0
    C    -2.4826810000000004    -1.418963    0.0
    C    -3.678261    -0.7295800000000001    0.0
    C    -3.681183    0.663089    0.0
    C    -2.476005    1.361031    0.0
    C    0.010925    1.454469    0.0
    C    -0.0305    -1.429239    0.0
    C    1.2575299999999998    0.6675150000000001    0.0
    C    1.2248709999999998    -0.729229    0.0
    C    -1.266655    0.6866400000000001    0.0
    C    -1.2498710000000002    -0.732229    0.0
    H    2.493871    2.4429220000000003    0.0
    H    4.657853    1.2186890000000001    0.0
    H    4.6057120000000005    -1.273224    0.0
    H    2.4583500000000007    -2.479034    0.0
    H    -0.028125    -2.510291    0.0
    H    -2.4766000000000004    -2.5011590000000004    0.0
    H    -4.612962    -1.2720989999999999    0.0
    H    -4.6162279999999996    1.2043139999999999    0.0
    H    -2.483371    2.444047    0.0
    H    0.04    2.1460369999999998    -0.85986
    H    0.04    2.1460369999999998    0.85986

