%NProcShared=48
%mem = 190GB
#n M062X/6-311++G(d,p) TD(NStates=1) EmpiricalDispersion=GD3 SP
 
 SP_0

1 1
    C    2.5043550000000003    1.3595309999999998    0.0
    C    3.7145580000000002    0.677014    0.0
    C    3.6877609999999996    -0.70528    0.0
    C    2.451531    -1.4008629999999997    0.0
    C    -2.4749309999999998    -1.414513    0.0
    C    -3.6808609999999997    -0.7238800000000001    0.0
    C    -3.689883    0.666439    0.0
    C    -2.4838050000000003    1.360431    0.0
    C    0.0065249999999999996    1.4566689999999998    0.0
    C    -0.0183    -1.4293390000000001    0.0
    C    1.2594299999999998    0.6713650000000001    0.0
    C    1.229671    -0.7296790000000001    0.0
    C    -1.264905    0.6828400000000001    0.0
    C    -1.244671    -0.731479    0.0
    H    2.492871    2.4428219999999996    0.0
    H    4.650103    1.2154390000000002    0.0
    H    4.607312    -1.2736239999999999    0.0
    H    2.4618500000000005    -2.483534    0.0
    H    -0.016875    -2.5103410000000004    0.0
    H    -2.4728000000000003    -2.4968090000000003    0.0
    H    -4.611662    -1.2729489999999999    0.0
    H    -4.625127999999999    1.206814    0.0
    H    -2.486571    2.443497    0.0
    H    0.024    2.146537    -0.86041
    H    0.024    2.146537    0.86041

