%NProcShared=48
%mem = 190GB
#n M062X/6-311++G(d,p) TD(NStates=1) EmpiricalDispersion=GD3 SP
 
 SP_0

1 1
    C    2.500455    1.3598309999999998    0.0
    C    3.710208    0.6753389999999999    0.0
    C    3.6864609999999995    -0.7081299999999999    0.0
    C    2.455406    -1.403088    0.0
    C    -2.471006    -1.412188    0.0
    C    -3.6818609999999996    -0.72053    0.0
    C    -3.693758    0.6682889999999999    0.0
    C    -2.486755    1.360431    0.0
    C    0.00435    1.455569    0.0
    C    -0.012199999999999999    -1.429289    0.0
    C    1.2603049999999998    0.673265    0.0
    C    1.232271    -0.730054    0.0
    C    -1.263955    0.680915    0.0
    C    -1.2422710000000001    -0.7312540000000001    0.0
    H    2.4912710000000002    2.443097    0.0
    H    4.645652999999999    1.2141890000000002    0.0
    H    4.607962000000001    -1.273199    0.0
    H    2.46375    -2.485709    0.0
    H    -0.01125    -2.5103160000000004    0.0
    H    -2.47105    -2.494559    0.0
    H    -4.610862    -1.272749    0.0
    H    -4.629002999999999    1.208439    0.0
    H    -2.4870710000000003    2.4435469999999997    0.0
    H    0.016    2.146287    -0.8601350000000001
    H    0.016    2.146287    0.8601350000000001

