%NProcShared=48
%mem = 190GB
#n M062X/6-311++G(d,p) TD(NStates=1) EmpiricalDispersion=GD3 SP
 
 SP_-50

1 1
    C    2.514155    1.3592309999999999    0.0
    C    3.7266580000000005    0.682389    0.0
    C    3.691061    -0.69573    0.0
    C    2.4398060000000004    -1.3939879999999998    0.0
    C    -2.486606    -1.4212879999999999    0.0
    C    -3.677261    -0.7329300000000001    0.0
    C    -3.677308    0.661239    0.0
    C    -2.473055    1.361031    0.0
    C    0.0131    1.455569    0.0
    C    -0.036599999999999994    -1.429289    0.0
    C    1.2566549999999999    0.6656150000000001    0.0
    C    1.2222709999999999    -0.728854    0.0
    C    -1.267605    0.6885650000000001    0.0
    C    -1.2522710000000001    -0.732454    0.0
    H    2.4954709999999998    2.442647    0.0
    H    4.6623030000000005    1.219939    0.0
    H    4.605062    -1.273649    0.0
    H    2.4564500000000007    -2.476859    0.0
    H    -0.03375    -2.510316    0.0
    H    -2.4783500000000003    -2.5034090000000004    0.0
    H    -4.6137619999999995    -1.2722989999999998    0.0
    H    -4.612353    1.202689    0.0
    H    -2.482871    2.443997    0.0
    H    0.048    2.1462869999999996    -0.860135
    H    0.048    2.1462869999999996    0.860135

