%NProcShared=48
%mem = 190GB
#n M062X/6-311++G(d,p) TD(NStates=1) EmpiricalDispersion=GD3 SP
 
 SP_100

1 1
    C    2.480855    1.360431    0.0
    C    3.686008    0.664589    0.0
    C    3.679861    -0.72723    0.0
    C    2.478856    -1.4168379999999998    0.0
    C    -2.4476560000000003    -1.3986379999999998    0.0
    C    -3.6890609999999997    -0.70243    0.0
    C    -3.7189080000000003    0.678689    0.0
    C    -2.508255    1.3592309999999999    0.0
    C    -0.0088    1.4577689999999999    0.0
    C    0.024399999999999998    -1.429389    0.0
    C    1.265855    0.6847650000000001    0.0
    C    1.247071    -0.731704    0.0
    C    -1.2585549999999999    0.6694650000000001    0.0
    C    -1.227071    -0.7293040000000001    0.0
    H    2.486071    2.443447    0.0
    H    4.621252999999999    1.205189    0.0
    H    4.612462    -1.2731489999999999    0.0
    H    2.4745500000000002    -2.4990590000000004    0.0
    H    0.0225    -2.5103660000000003    0.0
    H    -2.4599500000000005    -2.4813590000000003    0.0
    H    -4.606662    -1.274049    0.0
    H    -4.654553    1.2166890000000001    0.0
    H    -2.494471    2.442547    0.0
    H    -0.032    2.146787    -0.860685
    H    -0.032    2.146787    0.860685

