%NProcShared=48
%mem = 190GB
#n M062X/6-311++G(d,p) TD(NStates=1) EmpiricalDispersion=GD3 SP
 
 SP_25

1 1
    C    2.4936049999999996    1.360131    0.0
    C    3.7019830000000002    0.6718139999999999    0.0
    C    3.684161    -0.7143299999999999    0.0
    C    2.4632060000000005    -1.407638    0.0
    C    -2.4632060000000005    -1.407638    0.0
    C    -3.684161    -0.7143299999999999    0.0
    C    -3.7019830000000002    0.6718139999999999    0.0
    C    -2.4936049999999996    1.360131    0.0
    C    -2.5000000000000282e-05    1.4555690000000001    0.0
    C    0.0    -1.4292889999999998    0.0
    C    1.26213    0.67709    0.0
    C    1.237271    -0.730654    0.0
    C    -1.26213    0.67709    0.0
    C    -1.237271    -0.730654    0.0
    H    2.489171    2.443322    0.0
    H    4.637328    1.211314    0.0
    H    4.609412    -1.272974    0.0
    H    2.4674    -2.4901340000000003    0.0
    H    0.0    -2.510316    0.0
    H    -2.4674    -2.4901340000000003    0.0
    H    -4.609412    -1.272974    0.0
    H    -4.637328    1.211314    0.0
    H    -2.489171    2.443322    0.0
    H    0.0    2.1462869999999996    -0.8601350000000001
    H    0.0    2.1462869999999996    0.8601350000000001

