%NProcShared=48
%mem = 190GB
#n M062X/6-311++G(d,p) TD(NStates=1) EmpiricalDispersion=GD3 SP
 
 SP_-150

1 1
    C    2.5298550000000004    1.358931    0.0
    C    3.746508    0.6914639999999999    0.0
    C    3.6963609999999996    -0.6794799999999999    0.0
    C    2.4202310000000007    -1.382463    0.0
    C    -2.5060309999999992    -1.432513    0.0
    C    -3.671061    -0.7476799999999999    0.0
    C    -3.656033    0.6526889999999999    0.0
    C    -2.454505    1.362231    0.0
    C    0.024075    1.4522689999999998    0.0
    C    -0.0671    -1.4291390000000002    0.0
    C    1.2519799999999999    0.656015    0.0
    C    1.2100710000000001    -0.7275790000000001    0.0
    C    -1.272055    0.6980899999999999    0.0
    C    -1.2650709999999998    -0.7341789999999999    0.0
    H    2.4990710000000003    2.4425719999999993    0.0
    H    4.682253    1.227689    0.0
    H    4.601212    -1.2732740000000002    0.0
    H    2.44755    -2.465684    0.0
    H    -0.061875    -2.510241    0.0
    H    -2.4876999999999994    -2.514359    0.0
    H    -4.617162    -1.2707989999999998    0.0
    H    -4.590677999999999    1.196064    0.0
    H    -2.4759710000000004    2.445047    0.0
    H    0.088    2.145537    -0.8593100000000001
    H    0.088    2.145537    0.8593100000000001

