%NProcShared=48
%mem = 190GB
#n M062X/6-311++G(d,p) TD(NStates=1) EmpiricalDispersion=GD3 SP
 
 SP_-100

1 1
    C    2.512255    1.3598309999999998    0.0
    C    3.725708    0.682739    0.0
    C    3.690461    -0.6947299999999998    0.0
    C    2.439706    -1.393788    0.0
    C    -2.486506    -1.4210880000000001    0.0
    C    -3.676661    -0.73193    0.0
    C    -3.6763579999999996    0.661589    0.0
    C    -2.471155    1.361631    0.0
    C    0.01315    1.451169    0.0
    C    -0.036599999999999994    -1.429089    0.0
    C    1.2565049999999998    0.665565    0.0
    C    1.222671    -0.7291540000000001    0.0
    C    -1.267455    0.688515    0.0
    C    -1.2526709999999999    -0.7327539999999999    0.0
    H    2.493271    2.443297    0.0
    H    4.6611530000000005    1.2206890000000001    0.0
    H    4.604762000000001    -1.272399    0.0
    H    2.4567500000000004    -2.4767089999999996    0.0
    H    -0.03375    -2.510216    0.0
    H    -2.47865    -2.503259    0.0
    H    -4.613462    -1.2710489999999999    0.0
    H    -4.611203    1.203439    0.0
    H    -2.480671    2.444647    0.0
    H    0.048    2.1452869999999997    -0.859035
    H    0.048    2.1452869999999997    0.859035

