%NProcShared=48
%mem = 190GB
#n M062X/6-311++G(d,p) TD(NStates=1) EmpiricalDispersion=GD3 SP
 
 SP_-50

1 1
    C    2.479055    1.361931    -0.0
    C    3.687508    0.667314    -0.0
    C    3.679361    -0.7213799999999999    -0.0
    C    2.474681    -1.4140130000000002    -0.0
    C    -2.4512810000000007    -1.4003630000000002    -0.0
    C    -3.686261    -0.70278    -0.0
    C    -3.7121829999999996    0.677889    -0.0
    C    -2.499605    1.361031    -0.0
    C    -0.006474999999999999    1.445669    -0.0
    C    0.018300000000000004    -1.428839    0.0
    C    1.26453    0.682715    -0.0
    C    1.2456709999999998    -0.7322289999999999    -0.0
    C    -1.259055    0.6712400000000001    -0.0
    C    -1.230671    -0.730429    -0.0
    H    2.4810710000000005    2.4451220000000005    -0.0
    H    4.622253    1.208689    -0.0
    H    4.610912000000001    -1.2698239999999998    -0.0
    H    2.47355    -2.4964339999999994    -0.0
    H    0.016875    -2.5100909999999996    0.0
    H    -2.4626    -2.4831589999999997    -0.0
    H    -4.606562    -1.270499    -0.0
    H    -4.647228    1.2173139999999998    -0.0
    H    -2.4873710000000004    2.444447    -0.0
    H    -0.024    2.144037    -0.85766
    H    -0.024    2.144037    0.85766

