%NProcShared=48
%mem = 190GB
#n M062X/6-311++G(d,p) TD(NStates=1) EmpiricalDispersion=GD3 SP
 
 SP_-100

1 1
    C    2.4849550000000002    1.361931    -0.0
    C    3.6952579999999995    0.6710139999999999    -0.0
    C    3.681361    -0.7146799999999999    -0.0
    C    2.466831    -1.4093630000000004    -0.0
    C    -2.4590310000000004    -1.4048130000000003    -0.0
    C    -3.683661    -0.7084799999999998    -0.0
    C    -3.7034829999999994    0.6745389999999999    -0.0
    C    -2.4918050000000003    1.361631    -0.0
    C    -0.0020749999999999987    1.443469    -0.0
    C    0.006100000000000005    -1.4287390000000002    0.0
    C    1.26263    0.6788649999999999    -0.0
    C    1.2408709999999998    -0.731779    -0.0
    C    -1.260805    0.6750399999999999    -0.0
    C    -1.235871    -0.7311789999999999    -0.0
    H    2.482071000000001    2.4452220000000002    -0.0
    H    4.630002999999999    1.2119389999999999    -0.0
    H    4.609312000000001    -1.2694239999999999    -0.0
    H    2.4700499999999996    -2.491933999999999    -0.0
    H    0.0056250000000000015    -2.5100409999999997    0.0
    H    -2.4663999999999997    -2.4875089999999993    -0.0
    H    -4.607862000000001    -1.269649    -0.0
    H    -4.638328    1.2148139999999998    -0.0
    H    -2.484171000000001    2.444997    -0.0
    H    -0.008    2.1435370000000002    -0.85711
    H    -0.008    2.1435370000000002    0.85711

