%NProcShared=48
%mem = 190GB
#n M062X/6-311++G(d,p) TD(NStates=1) EmpiricalDispersion=GD3 SP
 
 SP_100

1 1
    C    2.504255    1.358631    0.0
    C    3.7121080000000006    0.674639    0.0
    C    3.6876609999999994    -0.7101300000000001    0.0
    C    2.4556060000000004    -1.4034879999999996    0.0
    C    -2.471206    -1.4125879999999995    0.0
    C    -3.6830609999999995    -0.7225300000000001    0.0
    C    -3.6956580000000008    0.667589    0.0
    C    -2.490555    1.3592309999999999    0.0
    C    0.004249999999999999    1.4643689999999998    0.0
    C    -0.012200000000000003    -1.429689    0.0
    C    1.260605    0.6733650000000002    0.0
    C    1.231471    -0.729454    0.0
    C    -1.264255    0.6810150000000001    0.0
    C    -1.2414710000000002    -0.7306540000000001    0.0
    H    2.4956709999999998    2.4417969999999998    0.0
    H    4.647952999999999    1.2126890000000001    0.0
    H    4.608561999999999    -1.275699    0.0
    H    2.4631500000000006    -2.486009000000001    0.0
    H    -0.011250000000000003    -2.510516000000001    0.0
    H    -2.4704500000000005    -2.494859000000001    0.0
    H    -4.6114619999999995    -1.2752489999999999    0.0
    H    -4.631302999999999    1.2069390000000002    0.0
    H    -2.4914709999999998    2.442247    0.0
    H    0.016    2.148287    -0.8623350000000001
    H    0.016    2.148287    0.8623350000000001

