%NProcShared=48
%mem = 190GB
#n M062X/6-311++G(d,p) TD(NStates=1) EmpiricalDispersion=GD3 SP
 
 SP_-75

1 1
    C    2.478105    1.362231    -0.0
    C    3.6870329999999996    0.6674889999999998    -0.0
    C    3.679061    -0.7208799999999997    -0.0
    C    2.4746310000000005    -1.4139130000000002    -0.0
    C    -2.4512310000000004    -1.4002630000000003    -0.0
    C    -3.685961    -0.7022799999999998    -0.0
    C    -3.711708    0.6780639999999998    -0.0
    C    -2.498655    1.361331    -0.0
    C    -0.006449999999999999    1.4434690000000001    -0.0
    C    0.0183    -1.428739    0.0
    C    1.2644549999999999    0.6826899999999998    -0.0
    C    1.2458709999999997    -0.7323789999999999    -0.0
    C    -1.25898    0.6712149999999999    -0.0
    C    -1.230871    -0.7305789999999999    -0.0
    H    2.479971000000001    2.445447    -0.0
    H    4.621677999999999    1.2090639999999997    -0.0
    H    4.610762000000001    -1.269199    -0.0
    H    2.473699999999999    -2.496358999999999    -0.0
    H    0.016875    -2.5100409999999993    0.0
    H    -2.4627499999999998    -2.4830839999999994    -0.0
    H    -4.606412000000001    -1.2698740000000002    -0.0
    H    -4.646653000000001    1.2176889999999998    -0.0
    H    -2.4862710000000003    2.4447720000000004    -0.0
    H    -0.024    2.1435370000000002    -0.85711
    H    -0.024    2.1435370000000002    0.85711

