%NProcShared=48
%mem = 190GB
#n M062X/6-311++G(d,p) TD(NStates=1) EmpiricalDispersion=GD3 SP
 
 SP_0

1 1
    C    2.4887550000000003    1.360731    0.0
    C    3.697158    0.670314    0.0
    C    3.6825609999999998    -0.71668    0.0
    C    2.467031    -1.4097629999999999    0.0
    C    -2.459231    -1.405213    0.0
    C    -3.6848609999999997    -0.71048    0.0
    C    -3.705383    0.673839    0.0
    C    -2.4956050000000003    1.360431    0.0
    C    -0.002175    1.4522689999999998    0.0
    C    0.0060999999999999995    -1.4291390000000002    0.0
    C    1.2629299999999999    0.678965    0.0
    C    1.240071    -0.731179    0.0
    C    -1.261105    0.6751400000000001    0.0
    C    -1.235071    -0.730579    0.0
    H    2.4864710000000003    2.4439219999999997    0.0
    H    4.632302999999999    1.210439    0.0
    H    4.6099120000000005    -1.2719239999999998    0.0
    H    2.46945    -2.492234    0.0
    H    0.005625    -2.510241    0.0
    H    -2.4658    -2.487809    0.0
    H    -4.608462    -1.272149    0.0
    H    -4.6406279999999995    1.213314    0.0
    H    -2.4885710000000003    2.443697    0.0
    H    -0.008    2.145537    -0.85931
    H    -0.008    2.145537    0.85931

