%NProcShared=48
%mem = 190GB
#n M062X/6-311++G(d,p) TD(NStates=1) EmpiricalDispersion=GD3 SP
 
 SP_50

1 1
    C    2.478955    1.361031    0.0
    C    3.6850579999999997    0.664939    0.0
    C    3.6792609999999994    -0.7262299999999999    0.0
    C    2.4787559999999997    -1.416638    0.0
    C    -2.447556    -1.398438    0.0
    C    -3.6884609999999993    -0.7014299999999999    0.0
    C    -3.7179580000000003    0.679039    0.0
    C    -2.506355    1.3598309999999998    0.0
    C    -0.00875    1.453369    0.0
    C    0.024399999999999998    -1.429189    0.0
    C    1.265705    0.684715    0.0
    C    1.247471    -0.7320040000000001    0.0
    C    -1.2584049999999998    0.669415    0.0
    C    -1.227471    -0.7296039999999999    0.0
    H    2.4838710000000006    2.4440969999999997    0.0
    H    4.6201029999999985    1.2059389999999999    0.0
    H    4.612162    -1.271899    0.0
    H    2.47485    -2.4989090000000003    0.0
    H    0.0225    -2.5102660000000006    0.0
    H    -2.4602500000000003    -2.4812089999999998    0.0
    H    -4.606362000000001    -1.272799    0.0
    H    -4.653402999999999    1.2174390000000002    0.0
    H    -2.4922710000000006    2.4431969999999996    0.0
    H    -0.032    2.1457870000000003    -0.859585
    H    -0.032    2.1457870000000003    0.859585

