%NProcShared=48
%mem = 190GB
#n M062X/6-311++G(d,p) TD(NStates=1) EmpiricalDispersion=GD3 SP
 
 SP_125

1 1
    C    2.4974049999999997    1.358931    0.0
    C    3.7038830000000007    0.671114    0.0
    C    3.685361    -0.71633    0.0
    C    2.4634060000000004    -1.4080379999999995    0.0
    C    -2.463406    -1.4080379999999997    0.0
    C    -3.685361    -0.7163300000000001    0.0
    C    -3.7038830000000007    0.671114    0.0
    C    -2.4974049999999997    1.358931    0.0
    C    -0.00012500000000000185    1.464369    0.0
    C    0.0    -1.4296889999999998    0.0
    C    1.26243    0.6771900000000001    0.0
    C    1.236471    -0.7300540000000001    0.0
    C    -1.26243    0.6771900000000002    0.0
    C    -1.236471    -0.7300540000000001    0.0
    H    2.4935709999999993    2.4420219999999997    0.0
    H    4.639628    1.2098140000000002    0.0
    H    4.610011999999999    -1.275474    0.0
    H    2.4668000000000005    -2.490434000000001    0.0
    H    0.0    -2.5105160000000004    0.0
    H    -2.4668000000000005    -2.490434000000001    0.0
    H    -4.610011999999999    -1.275474    0.0
    H    -4.639628    1.2098140000000002    0.0
    H    -2.4935709999999993    2.442022    0.0
    H    0.0    2.1482869999999994    -0.8623350000000001
    H    0.0    2.1482869999999994    0.8623350000000001

