%NProcShared=48
%mem = 190GB
#n M062X/6-311++G(d,p) TD(NStates=1) EmpiricalDispersion=GD3 SP
 
 SP_-100

1 1
    C    2.496655    1.361031    -0.0
    C    3.7083079999999997    0.6760389999999998    -0.0
    C    3.6852609999999997    -0.7061299999999999    -0.0
    C    2.4552060000000004    -1.4026880000000002    -0.0
    C    -2.470806    -1.411788    -0.0
    C    -3.6806609999999997    -0.7185299999999999    -0.0
    C    -3.691858    0.6689889999999998    -0.0
    C    -2.482955    1.361631    -0.0
    C    0.004450000000000001    1.446769    -0.0
    C    -0.012199999999999999    -1.428889    0.0
    C    1.260005    0.673165    -0.0
    C    1.2330709999999998    -0.7306539999999999    -0.0
    C    -1.263655    0.680815    -0.0
    C    -1.243071    -0.731854    -0.0
    H    2.4868710000000007    2.444397    -0.0
    H    4.643352999999999    1.2156889999999998    -0.0
    H    4.607362    -1.270699    -0.0
    H    2.4643499999999996    -2.4854089999999998    -0.0
    H    -0.01125    -2.510116    0.0
    H    -2.4716499999999995    -2.4942589999999996    -0.0
    H    -4.6102620000000005    -1.270249    -0.0
    H    -4.626702999999999    1.2099389999999999    -0.0
    H    -2.4826710000000007    2.444847    -0.0
    H    0.016    2.1442870000000003    -0.8579350000000001
    H    0.016    2.1442870000000003    0.8579350000000001

