%NProcShared=48
%mem = 190GB
#n M062X/6-311++G(d,p) TD(NStates=1) EmpiricalDispersion=GD3 SP
 
 SP_-100

1 1
    C    2.481055    1.362231    -0.0
    C    3.6909079999999994    0.6693389999999999    -0.0
    C    3.6800610000000002    -0.7175299999999998    -0.0
    C    2.470706    -1.4115880000000003    -0.0
    C    -2.4551060000000002    -1.4024880000000004    -0.0
    C    -3.684661    -0.7051299999999998    -0.0
    C    -3.7073579999999993    0.6763889999999999    -0.0
    C    -2.494755    1.361631    -0.0
    C    -0.004249999999999999    1.442369    -0.0
    C    0.012200000000000003    -1.428689    0.0
    C    1.2635049999999999    0.6807649999999998    -0.0
    C    1.243471    -0.732154    -0.0
    C    -1.259855    0.6731149999999999    -0.0
    C    -1.2334709999999998    -0.7309539999999999    -0.0
    H    2.4804710000000005    2.445497    -0.0
    H    4.625553    1.210689    -0.0
    H    4.609962000000001    -1.268999    -0.0
    H    2.4719499999999996    -2.494108999999999    -0.0
    H    0.011250000000000003    -2.5100159999999994    0.0
    H    -2.46465    -2.485258999999999    -0.0
    H    -4.607062000000001    -1.269449    -0.0
    H    -4.642203    1.2164389999999998    -0.0
    H    -2.4846710000000005    2.4450469999999997    -0.0
    H    -0.016    2.143287    -0.856835
    H    -0.016    2.143287    0.856835

