%NProcShared=48
%mem = 190GB
#n M062X/6-311++G(d,p) TD(NStates=1) EmpiricalDispersion=GD3 SP
 
 SP_125

1 1
    C    2.477905    1.360431    0.0
    C    3.6821330000000003    0.662739    0.0
    C    3.678861    -0.73058    0.0
    C    2.482781    -1.4191629999999997    0.0
    C    -2.4437810000000004    -1.396413    0.0
    C    -3.690361    -0.69958    0.0
    C    -3.7232580000000004    0.680364    0.0
    C    -2.512155    1.358931    0.0
    C    -0.011000000000000001    1.458869    0.0
    C    0.030500000000000003    -1.429439    0.0
    C    1.266805    0.68669    0.0
    C    1.249471    -0.731929    0.0
    C    -1.25768    0.6675650000000001    0.0
    C    -1.224471    -0.728929    0.0
    H    2.4855709999999998    2.443397    0.0
    H    4.6173779999999995    1.203564    0.0
    H    4.613262    -1.2733489999999998    0.0
    H    2.4763    -2.5013090000000004    0.0
    H    0.028125    -2.5103910000000003    0.0
    H    -2.4580500000000005    -2.4791840000000005    0.0
    H    -4.606012    -1.274474    0.0
    H    -4.659003    1.217939    0.0
    H    -2.4960709999999997    2.442272    0.0
    H    -0.04    2.1470369999999996    -0.8609600000000001
    H    -0.04    2.1470369999999996    0.8609600000000001

