%NProcShared=48
%mem = 190GB
#n M062X/6-311++G(d,p) TD(NStates=1) EmpiricalDispersion=GD3 SP
 
 SP_125

1 1
    C    2.4623049999999997    1.361631    0.0
    C    3.664733    0.6560389999999999    0.0
    C    3.673661    -0.74198    0.0
    C    2.498281    -1.4280629999999999    0.0
    C    -2.4280810000000006    -1.387113    0.0
    C    -3.694361    -0.6861799999999999    0.0
    C    -3.7387580000000002    0.6877639999999999    0.0
    C    -2.523955    1.358931    0.0
    C    -0.019700000000000002    1.454469    0.0
    C    0.054900000000000004    -1.429239    0.0
    C    1.270305    0.69429    0.0
    C    1.259871    -0.733429    0.0
    C    -1.2538799999999999    0.659865    0.0
    C    -1.214871    -0.728029    0.0
    H    2.479171    2.444497    0.0
    H    4.599577999999999    1.198564    0.0
    H    4.615862    -1.2716489999999998    0.0
    H    2.4838999999999998    -2.510009    0.0
    H    0.050625    -2.510291    0.0
    H    -2.4510500000000004    -2.470184    0.0
    H    -4.602812    -1.2736740000000002    0.0
    H    -4.6745030000000005    1.224439    0.0
    H    -2.498071    2.442472    0.0
    H    -0.07200000000000001    2.1460369999999998    -0.8598600000000001
    H    -0.07200000000000001    2.1460369999999998    0.8598600000000001

