%NProcShared=48
%mem = 190GB
#n M062X/6-311++G(d,p) TD(NStates=1) EmpiricalDispersion=GD3 SP
 
 SP_100

1 1
    C    2.500355    1.358931    0.0
    C    3.7077580000000006    0.672964    0.0
    C    3.6863609999999998    -0.7129800000000001    0.0
    C    2.4594810000000003    -1.4057129999999995    0.0
    C    -2.467281    -1.4102629999999996    0.0
    C    -3.684061    -0.7191800000000002    0.0
    C    -3.6995330000000006    0.669439    0.0
    C    -2.493505    1.3592309999999999    0.0
    C    0.0020749999999999987    1.463269    0.0
    C    -0.006100000000000005    -1.4296389999999999    0.0
    C    1.26148    0.6752650000000001    0.0
    C    1.2340710000000001    -0.7298290000000001    0.0
    C    -1.263305    0.6790900000000002    0.0
    C    -1.239071    -0.7304290000000001    0.0
    H    2.4940709999999995    2.4420719999999996    0.0
    H    4.643503    1.2114390000000002    0.0
    H    4.609211999999999    -1.275274    0.0
    H    2.4650500000000006    -2.488184000000001    0.0
    H    -0.0056250000000000015    -2.5104910000000005    0.0
    H    -2.4687000000000006    -2.4926090000000007    0.0
    H    -4.610662    -1.2750489999999999    0.0
    H    -4.635178    1.2085640000000002    0.0
    H    -2.4919709999999995    2.442297    0.0
    H    0.008    2.1480369999999995    -0.86206
    H    0.008    2.1480369999999995    0.86206

