%NProcShared=48
%mem = 190GB
#n M062X/6-311++G(d,p) TD(NStates=1) EmpiricalDispersion=GD3 SP
 
 SP_75

1 1
    C    2.472105    1.361331    0.0
    C    3.676833    0.661414    0.0
    C    3.676961    -0.73243    0.0
    C    2.4865559999999998    -1.421188    0.0
    C    -2.439756    -1.3938879999999998    0.0
    C    -3.6907609999999997    -0.69523    0.0
    C    -3.7261830000000002    0.682564    0.0
    C    -2.513205    1.3595309999999998    0.0
    C    -0.013125    1.453369    0.0
    C    0.0366    -1.429189    0.0
    C    1.26753    0.68854    0.0
    C    1.2524710000000001    -0.7326039999999999    0.0
    C    -1.2565799999999998    0.6655900000000001    0.0
    C    -1.2224709999999999    -0.7290040000000001    0.0
    H    2.481771    2.4443219999999997    0.0
    H    4.611777999999999    1.203064    0.0
    H    4.613612    -1.271674    0.0
    H    2.4785    -2.503334    0.0
    H    0.03375    -2.510266    0.0
    H    -2.4566000000000003    -2.476784    0.0
    H    -4.604912000000001    -1.273024    0.0
    H    -4.661728    1.2203140000000001    0.0
    H    -2.494371    2.4429719999999997    0.0
    H    -0.048    2.145787    -0.859585
    H    -0.048    2.145787    0.859585

