%NProcShared=48
%mem = 190GB
#n M062X/6-311++G(d,p) TD(NStates=1) EmpiricalDispersion=GD3 SP
 
 SP_-50

1 1
    C    2.490755    1.361031    -0.0
    C    3.700558    0.672339    -0.0
    C    3.683261    -0.7128299999999999    -0.0
    C    2.463056    -1.407338    -0.0
    C    -2.4630560000000004    -1.4073380000000002    -0.0
    C    -3.683261    -0.71283    -0.0
    C    -3.700558    0.672339    -0.0
    C    -2.490755    1.361031    -0.0
    C    5.0000000000000565e-05    1.448969    -0.0
    C    0.0    -1.428989    0.0
    C    1.261905    0.6770149999999999    -0.0
    C    1.2378709999999997    -0.731104    -0.0
    C    -1.261905    0.677015    -0.0
    C    -1.2378710000000002    -0.731104    -0.0
    H    2.4858710000000004    2.444297    -0.0
    H    4.635603    1.2124389999999998    -0.0
    H    4.608962    -1.271099    -0.0
    H    2.4678500000000003    -2.489909    -0.0
    H    0.0    -2.510166    0.0
    H    -2.4678500000000003    -2.489909    -0.0
    H    -4.608962    -1.271099    -0.0
    H    -4.635603    1.2124389999999998    -0.0
    H    -2.4858710000000004    2.4442969999999997    -0.0
    H    0.0    2.144787    -0.8584849999999999
    H    0.0    2.144787    0.8584849999999999

