%NProcShared=48
%mem = 190GB
#n M062X/6-311++G(d,p) TD(NStates=1) EmpiricalDispersion=GD3 SP
 
 SP_0

1 1
    C    2.484855    1.361031    0.0
    C    3.692808    0.668639    0.0
    C    3.681261    -0.71953    0.0
    C    2.4709060000000003    -1.411988    0.0
    C    -2.455306    -1.402888    0.0
    C    -3.685861    -0.7071299999999999    0.0
    C    -3.709258    0.675689    0.0
    C    -2.498555    1.360431    0.0
    C    -0.00435    1.451169    0.0
    C    0.012199999999999999    -1.429089    0.0
    C    1.263805    0.680865    0.0
    C    1.242671    -0.731554    0.0
    C    -1.260155    0.673215    0.0
    C    -1.2326709999999999    -0.730354    0.0
    H    2.484871    2.444197    0.0
    H    4.627853    1.2091889999999998    0.0
    H    4.610562    -1.271499    0.0
    H    2.47135    -2.494409    0.0
    H    0.01125    -2.510216    0.0
    H    -2.4640500000000003    -2.485559    0.0
    H    -4.607662    -1.271949    0.0
    H    -4.644503    1.214939    0.0
    H    -2.489071    2.443747    0.0
    H    -0.016    2.1452869999999997    -0.859035
    H    -0.016    2.1452869999999997    0.859035

