%NProcShared=48
%mem = 190GB
#n M062X/6-311++G(d,p) TD(NStates=1) EmpiricalDispersion=GD3 SP
 
 SP_125

1 1
    C    2.4701049999999998    1.361031    0.0
    C    3.673433    0.659389    0.0
    C    3.6762610000000002    -0.73628    0.0
    C    2.490531    -1.4236129999999998    0.0
    C    -2.4359310000000005    -1.391763    0.0
    C    -3.692361    -0.6928799999999999    0.0
    C    -3.731008    0.684064    0.0
    C    -2.518055    1.358931    0.0
    C    -0.01535    1.456669    0.0
    C    0.0427    -1.429339    0.0
    C    1.268555    0.69049    0.0
    C    1.254671    -0.7326790000000001    0.0
    C    -1.25578    0.663715    0.0
    C    -1.219671    -0.7284790000000001    0.0
    H    2.4823709999999997    2.443947    0.0
    H    4.608478    1.2010640000000001    0.0
    H    4.614561999999999    -1.2724989999999998    0.0
    H    2.4801    -2.5056590000000005    0.0
    H    0.039375    -2.5103410000000004    0.0
    H    -2.4545500000000002    -2.4746840000000003    0.0
    H    -4.604412    -1.2740740000000002    0.0
    H    -4.666753    1.221189    0.0
    H    -2.497071    2.4423719999999998    0.0
    H    -0.056    2.1465369999999995    -0.8604100000000001
    H    -0.056    2.1465369999999995    0.8604100000000001

