%NProcShared=48
%mem = 190GB
#n M062X/6-311++G(d,p) TD(NStates=1) EmpiricalDispersion=GD3 SP
 
 SP_-125

1 1
    C    2.5035050000000005    1.360731    -0.0
    C    3.7165329999999996    0.679564    -0.0
    C    3.6875609999999996    -0.6999299999999999    -0.0
    C    2.447406    -1.3981380000000003    -0.0
    C    -2.478606    -1.416338    -0.0
    C    -3.6783609999999998    -0.7247299999999999    -0.0
    C    -3.6836329999999995    0.6654639999999999    -0.0
    C    -2.4761050000000004    1.361931    -0.0
    C    0.008825000000000001    1.4467689999999997    -0.0
    C    -0.024400000000000005    -1.4288890000000003    0.0
    C    1.2581799999999999    0.66934    -0.0
    C    1.228071    -0.730054    -0.0
    C    -1.26548    0.6846399999999999    -0.0
    C    -1.248071    -0.7324539999999999    -0.0
    H    2.4889710000000007    2.444172    -0.0
    H    4.6516779999999995    1.218564    -0.0
    H    4.605912000000001    -1.270924    -0.0
    H    2.4607    -2.4809839999999994    -0.0
    H    -0.0225    -2.510116    0.0
    H    -2.4753    -2.4986839999999995    -0.0
    H    -4.611712000000001    -1.2700239999999998    -0.0
    H    -4.618377999999999    1.207064    -0.0
    H    -2.4805710000000007    2.4450719999999997    -0.0
    H    0.032    2.1442870000000003    -0.857935
    H    0.032    2.1442870000000003    0.857935

