%NProcShared=48
%mem = 190GB
#n M062X/6-311++G(d,p) TD(NStates=1) EmpiricalDispersion=GD3 SP
 
 SP_150

1 1
    C    2.4554549999999997    1.361931    0.0
    C    3.656508    0.652514    0.0
    C    3.671361    -0.7481800000000001    0.0
    C    2.5060809999999996    -1.432613    0.0
    C    -2.420281000000001    -1.382563    0.0
    C    -3.6966609999999998    -0.67998    0.0
    C    -3.746983    0.691289    0.0
    C    -2.530805    1.358631    0.0
    C    -0.024075    1.454469    0.0
    C    0.0671    -1.429239    0.0
    C    1.27213    0.698115    0.0
    C    1.2648709999999999    -0.7340289999999999    0.0
    C    -1.252055    0.6560400000000002    0.0
    C    -1.2098710000000001    -0.7274290000000001    0.0
    H    2.477071    2.4447220000000005    0.0
    H    4.591252999999999    1.195689    0.0
    H    4.617312    -1.2714239999999997    0.0
    H    2.48755    -2.514434    0.0
    H    0.061875    -2.510291    0.0
    H    -2.447400000000001    -2.4657590000000003    0.0
    H    -4.601362    -1.2738990000000001    0.0
    H    -4.682828000000001    1.227314    0.0
    H    -2.500171    2.4422469999999996    0.0
    H    -0.088    2.1460369999999998    -0.85986
    H    -0.088    2.1460369999999998    0.85986

