%NProcShared=48
%mem = 190GB
#n M062X/6-311++G(d,p) TD(NStates=1) EmpiricalDispersion=GD3 SP
 
 SP_100

1 1
    C    2.473055    1.361031    0.0
    C    3.677308    0.6612389999999999    0.0
    C    3.6772609999999997    -0.7329300000000001    0.0
    C    2.486606    -1.4212879999999999    0.0
    C    -2.4398060000000004    -1.3939879999999998    0.0
    C    -3.6910609999999995    -0.69573    0.0
    C    -3.7266580000000005    0.6823889999999999    0.0
    C    -2.514155    1.3592309999999999    0.0
    C    -0.01315    1.455569    0.0
    C    0.036599999999999994    -1.429289    0.0
    C    1.267605    0.6885650000000001    0.0
    C    1.252271    -0.7324539999999999    0.0
    C    -1.2566549999999999    0.6656150000000001    0.0
    C    -1.222271    -0.7288540000000001    0.0
    H    2.4828710000000003    2.443997    0.0
    H    4.612352999999999    1.202689    0.0
    H    4.6137619999999995    -1.2722989999999998    0.0
    H    2.47835    -2.5034090000000004    0.0
    H    0.03375    -2.5103160000000004    0.0
    H    -2.4564500000000002    -2.476859    0.0
    H    -4.605062    -1.273649    0.0
    H    -4.662303    1.219939    0.0
    H    -2.495471    2.442647    0.0
    H    -0.048    2.146287    -0.8601350000000001
    H    -0.048    2.146287    0.8601350000000001

