%NProcShared=48
%mem = 190GB
#n M062X/6-311++G(d,p) TD(NStates=1) EmpiricalDispersion=GD3 SP
 
 SP_50

1 1
    C    2.463355    1.362231    0.0
    C    3.6676579999999994    0.6582389999999998    0.0
    C    3.674061    -0.73763    0.0
    C    2.494256    -1.4255380000000002    0.0
    C    -2.4318560000000002    -1.389138    0.0
    C    -3.6924609999999998    -0.6880299999999998    0.0
    C    -3.7334579999999997    0.6864389999999998    0.0
    C    -2.518155    1.3598309999999998    0.0
    C    -0.01745    1.448969    0.0
    C    0.048799999999999996    -1.428989    0.0
    C    1.269205    0.692315    0.0
    C    1.2578710000000002    -0.7335039999999999    0.0
    C    -1.2546049999999997    0.6617149999999999    0.0
    C    -1.2178709999999997    -0.728704    0.0
    H    2.4774710000000004    2.445197    0.0
    H    4.602302999999999    1.200939    0.0
    H    4.614762000000001    -1.2701989999999999    0.0
    H    2.482449999999999    -2.5076089999999995    0.0
    H    0.045    -2.510166    0.0
    H    -2.4532499999999997    -2.4722089999999994    0.0
    H    -4.603162000000001    -1.271999    0.0
    H    -4.668903    1.223939    0.0
    H    -2.4942710000000003    2.443397    0.0
    H    -0.064    2.144787    -0.8584850000000002
    H    -0.064    2.144787    0.8584850000000002

