%NProcShared=48
%mem = 190GB
#n M062X/6-311++G(d,p) TD(NStates=1) EmpiricalDispersion=GD3 SP
 
 SP_-100

1 1
    C    2.492755    1.361331    -0.0
    C    3.7039579999999996    0.6743639999999999    -0.0
    C    3.683961    -0.7089799999999998    -0.0
    C    2.4590810000000003    -1.404913    -0.0
    C    -2.466881    -1.4094630000000001    -0.0
    C    -3.681661    -0.7151799999999999    -0.0
    C    -3.6957329999999997    0.6708389999999999    -0.0
    C    -2.485905    1.361631    -0.0
    C    0.002275000000000001    1.445669    -0.0
    C    -0.006099999999999998    -1.428839    0.0
    C    1.26088    0.6750649999999999    -0.0
    C    1.235671    -0.7310289999999999    -0.0
    C    -1.262705    0.67889    -0.0
    C    -1.2406709999999999    -0.731629    -0.0
    H    2.4852710000000005    2.4446719999999997    -0.0
    H    4.638903    1.2144389999999998    -0.0
    H    4.608012    -1.2702740000000001    -0.0
    H    2.4662499999999996    -2.4875839999999996    -0.0
    H    -0.005624999999999998    -2.5100909999999996    0.0
    H    -2.4698999999999995    -2.4920089999999995    -0.0
    H    -4.609462000000001    -1.270049    -0.0
    H    -4.630578    1.2115639999999999    -0.0
    H    -2.4831710000000005    2.444897    -0.0
    H    0.008    2.144037    -0.8576600000000001
    H    0.008    2.144037    0.8576600000000001

