%NProcShared=48
%mem = 190GB
#n M062X/6-311++G(d,p) TD(NStates=1) EmpiricalDispersion=GD3 SP
 
 SP_-125

1 1
    C    2.511305    1.360131    0.0
    C    3.725233    0.6829139999999999    0.0
    C    3.690161    -0.6942299999999999    0.0
    C    2.4396560000000003    -1.393688    0.0
    C    -2.4864559999999996    -1.420988    0.0
    C    -3.676361    -0.73143    0.0
    C    -3.675883    0.6617639999999999    0.0
    C    -2.470205    1.361931    0.0
    C    0.013175000000000001    1.448969    0.0
    C    -0.0366    -1.428989    0.0
    C    1.25643    0.66554    0.0
    C    1.222871    -0.729304    0.0
    C    -1.26738    0.68849    0.0
    C    -1.2528709999999998    -0.732904    0.0
    H    2.4921710000000004    2.4436219999999995    0.0
    H    4.660578    1.221064    0.0
    H    4.604612    -1.2717740000000002    0.0
    H    2.4569    -2.476634    0.0
    H    -0.03375    -2.510166    0.0
    H    -2.4787999999999997    -2.5031839999999996    0.0
    H    -4.6133120000000005    -1.2704239999999998    0.0
    H    -4.610627999999999    1.203814    0.0
    H    -2.4795710000000004    2.444972    0.0
    H    0.048    2.144787    -0.858485
    H    0.048    2.144787    0.858485

