%NProcShared=48
%mem = 190GB
#n M062X/6-311++G(d,p) TD(NStates=1) EmpiricalDispersion=GD3 SP
 
 SP_25

1 1
    C    2.497505    1.3598309999999998    0.0
    C    3.7063330000000003    0.673489    0.0
    C    3.685461    -0.7114799999999999    0.0
    C    2.4593310000000006    -1.4054129999999998    0.0
    C    -2.467131    -1.4099629999999999    0.0
    C    -3.683161    -0.71768    0.0
    C    -3.6981080000000004    0.669964    0.0
    C    -2.490655    1.360131    0.0
    C    0.0021499999999999996    1.456669    0.0
    C    -0.0060999999999999995    -1.429339    0.0
    C    1.2612549999999998    0.67519    0.0
    C    1.234671    -0.7302790000000001    0.0
    C    -1.26308    0.679015    0.0
    C    -1.239671    -0.7308790000000001    0.0
    H    2.4907709999999996    2.443047    0.0
    H    4.641778    1.212564    0.0
    H    4.6087620000000005    -1.273399    0.0
    H    2.4655000000000005    -2.487959    0.0
    H    -0.005625    -2.5103410000000004    0.0
    H    -2.46915    -2.4923840000000004    0.0
    H    -4.610212    -1.273174    0.0
    H    -4.633452999999999    1.209689    0.0
    H    -2.488671    2.4432720000000003    0.0
    H    0.008    2.1465369999999995    -0.8604100000000001
    H    0.008    2.1465369999999995    0.8604100000000001

