%NProcShared=48
%mem = 190GB
#n M062X/6-311++G(d,p) TD(NStates=1) EmpiricalDispersion=GD3 SP
 
 SP_-50

1 1
    C    2.506355    1.3598309999999998    0.0
    C    3.7179580000000003    0.679039    0.0
    C    3.688461    -0.70143    0.0
    C    2.4475560000000005    -1.3984379999999998    0.0
    C    -2.478756    -1.4166379999999998    0.0
    C    -3.6792610000000003    -0.72623    0.0
    C    -3.6850579999999997    0.664939    0.0
    C    -2.478955    1.361031    0.0
    C    0.00875    1.453369    0.0
    C    -0.024399999999999998    -1.429189    0.0
    C    1.2584049999999998    0.6694150000000001    0.0
    C    1.227471    -0.7296039999999999    0.0
    C    -1.265705    0.6847150000000001    0.0
    C    -1.247471    -0.7320040000000001    0.0
    H    2.4922709999999997    2.443197    0.0
    H    4.653403000000001    1.2174390000000002    0.0
    H    4.606362000000001    -1.272799    0.0
    H    2.4602500000000003    -2.4812089999999998    0.0
    H    -0.0225    -2.5102659999999997    0.0
    H    -2.47485    -2.4989090000000003    0.0
    H    -4.612162    -1.271899    0.0
    H    -4.620103    1.2059389999999999    0.0
    H    -2.4838709999999997    2.444097    0.0
    H    0.032    2.1457869999999994    -0.859585
    H    0.032    2.1457869999999994    0.859585

