%NProcShared=48
%mem = 190GB
#n M062X/6-311++G(d,p) TD(NStates=1) EmpiricalDispersion=GD3 SP
 
 SP_150

1 1
    C    2.474955    1.360431    0.0
    C    3.6782580000000005    0.6608890000000001    0.0
    C    3.677861    -0.7339300000000001    0.0
    C    2.486706    -1.4214879999999996    0.0
    C    -2.4399060000000006    -1.3941879999999998    0.0
    C    -3.691661    -0.6967300000000001    0.0
    C    -3.7276080000000005    0.6820390000000001    0.0
    C    -2.516055    1.358631    0.0
    C    -0.0132    1.4599689999999999    0.0
    C    0.0366    -1.429489    0.0
    C    1.267755    0.6886150000000001    0.0
    C    1.251871    -0.732154    0.0
    C    -1.256805    0.6656650000000002    0.0
    C    -1.2218710000000002    -0.7285540000000001    0.0
    H    2.4850709999999996    2.443347    0.0
    H    4.613503    1.201939    0.0
    H    4.614062    -1.2735489999999998    0.0
    H    2.4780500000000005    -2.5035590000000005    0.0
    H    0.03375    -2.510416    0.0
    H    -2.456150000000001    -2.4770090000000007    0.0
    H    -4.6053619999999995    -1.274899    0.0
    H    -4.6634530000000005    1.219189    0.0
    H    -2.4976709999999995    2.4419969999999998    0.0
    H    -0.048    2.1472869999999995    -0.861235
    H    -0.048    2.1472869999999995    0.861235

