%NProcShared=48
%mem = 190GB
#n M062X/6-311++G(d,p) TD(NStates=1) EmpiricalDispersion=GD3 SP
 
 SP_-25

1 1
    C    2.5112050000000004    1.3592309999999999    0.0
    C    3.722783    0.680539    0.0
    C    3.6900609999999996    -0.69908    0.0
    C    2.443731    -1.396313    0.0
    C    -2.482731    -1.4190629999999997    0.0
    C    -3.6785609999999997    -0.7300800000000001    0.0
    C    -3.681658    0.662914    0.0
    C    -2.4769550000000002    1.360731    0.0
    C    0.0109    1.4566689999999998    0.0
    C    -0.0305    -1.4293390000000001    0.0
    C    1.2576049999999999    0.6675400000000001    0.0
    C    1.224671    -0.729079    0.0
    C    -1.26673    0.6866650000000001    0.0
    C    -1.249671    -0.732079    0.0
    H    2.494971    2.4425969999999997    0.0
    H    4.658428    1.2183140000000001    0.0
    H    4.605862    -1.273849    0.0
    H    2.4582000000000006    -2.4791090000000002    0.0
    H    -0.028124999999999997    -2.5103410000000004    0.0
    H    -2.4764500000000003    -2.501234    0.0
    H    -4.613112    -1.2727239999999997    0.0
    H    -4.616802999999999    1.203939    0.0
    H    -2.484471    2.4437219999999997    0.0
    H    0.04    2.146537    -0.86041
    H    0.04    2.146537    0.86041

