%NProcShared=48
%mem = 190GB
#n M062X/6-311++G(d,p) TD(NStates=1) EmpiricalDispersion=GD3 SP
 
 SP_100

1 1
    C    2.496455    1.3592309999999999    0.0
    C    3.7034080000000005    0.671289    0.0
    C    3.6850609999999997    -0.7158300000000001    0.0
    C    2.463356    -1.4079379999999997    0.0
    C    -2.463356    -1.4079379999999997    0.0
    C    -3.6850609999999997    -0.7158300000000001    0.0
    C    -3.7034080000000005    0.671289    0.0
    C    -2.496455    1.3592309999999999    0.0
    C    -0.00010000000000000113    1.4621689999999998    0.0
    C    0.0    -1.429589    0.0
    C    1.262355    0.6771650000000001    0.0
    C    1.236671    -0.7302040000000001    0.0
    C    -1.262355    0.6771650000000001    0.0
    C    -1.236671    -0.7302040000000001    0.0
    H    2.4924709999999997    2.442347    0.0
    H    4.639053    1.2101890000000002    0.0
    H    4.609862    -1.274849    0.0
    H    2.4669500000000006    -2.4903590000000007    0.0
    H    0.0    -2.5104660000000005    0.0
    H    -2.4669500000000006    -2.4903590000000007    0.0
    H    -4.609862    -1.274849    0.0
    H    -4.639053    1.2101890000000002    0.0
    H    -2.4924709999999997    2.442347    0.0
    H    0.0    2.1477869999999997    -0.861785
    H    0.0    2.1477869999999997    0.861785

