%NProcShared=48
%mem = 190GB
#n M062X/6-311++G(d,p) TD(NStates=1) EmpiricalDispersion=GD3 SP
 
 SP_75

1 1
    C    2.4916050000000003    1.3598309999999998    0.0
    C    3.698583    0.669789    0.0
    C    3.6834609999999994    -0.71818    0.0
    C    2.467181    -1.4100629999999998    0.0
    C    -2.459381    -1.4055129999999996    0.0
    C    -3.6857609999999994    -0.7119800000000001    0.0
    C    -3.7068080000000005    0.673314    0.0
    C    -2.4984550000000003    1.3595309999999998    0.0
    C    -0.0022500000000000003    1.4588689999999997    0.0
    C    0.006100000000000001    -1.4294390000000001    0.0
    C    1.2631549999999998    0.6790400000000001    0.0
    C    1.239471    -0.730729    0.0
    C    -1.2613299999999998    0.6752150000000001    0.0
    C    -1.234471    -0.730129    0.0
    H    2.489771    2.4429469999999998    0.0
    H    4.634027999999999    1.209314    0.0
    H    4.610362    -1.273799    0.0
    H    2.4690000000000003    -2.492459    0.0
    H    0.0056250000000000015    -2.5103910000000003    0.0
    H    -2.465350000000001    -2.4880340000000003    0.0
    H    -4.608912    -1.2740239999999998    0.0
    H    -4.642353    1.2121890000000002    0.0
    H    -2.4918709999999997    2.442722    0.0
    H    -0.008    2.147037    -0.86096
    H    -0.008    2.147037    0.86096

