%NProcShared=48
%mem = 190GB
#n M062X/6-311++G(d,p) TD(NStates=1) EmpiricalDispersion=GD3 SP
 
 SP_-150

1 1
    C    2.4986550000000003    1.361331    -0.0
    C    3.7117079999999993    0.6780639999999998    -0.0
    C    3.685961    -0.7022799999999998    -0.0
    C    2.4512310000000004    -1.4002630000000003    -0.0
    C    -2.4746309999999996    -1.4139130000000002    -0.0
    C    -3.679061    -0.7208799999999997    -0.0
    C    -3.6870329999999996    0.6674889999999998    -0.0
    C    -2.4781050000000002    1.362231    -0.0
    C    0.006675    1.443469    -0.0
    C    -0.0183    -1.4287390000000002    0.0
    C    1.25898    0.6712149999999999    -0.0
    C    1.230871    -0.730579    -0.0
    C    -1.2644549999999999    0.6826899999999998    -0.0
    C    -1.2458709999999997    -0.7323789999999999    -0.0
    H    2.486271000000001    2.4447719999999995    -0.0
    H    4.646653    1.2176889999999998    -0.0
    H    4.606412000000001    -1.2698740000000002    -0.0
    H    2.4627499999999993    -2.4830839999999994    -0.0
    H    -0.016875    -2.5100409999999997    0.0
    H    -2.473699999999999    -2.496358999999999    -0.0
    H    -4.610762000000001    -1.269199    -0.0
    H    -4.621677999999999    1.209064    -0.0
    H    -2.479971000000001    2.445447    -0.0
    H    0.024    2.1435370000000002    -0.8571100000000001
    H    0.024    2.1435370000000002    0.8571100000000001

