%NProcShared=48
%mem = 190GB
#n M062X/6-311++G(d,p) TD(NStates=1) EmpiricalDispersion=GD3 SP
 
 SP_-100

1 1
    C    2.504455    1.360431    0.0
    C    3.717008    0.6793889999999999    0.0
    C    3.687861    -0.7004299999999999    0.0
    C    2.4474560000000003    -1.398238    0.0
    C    -2.478656    -1.416438    0.0
    C    -3.678661    -0.7252299999999999    0.0
    C    -3.6841079999999997    0.6652889999999999    0.0
    C    -2.477055    1.361631    0.0
    C    0.0088    1.448969    0.0
    C    -0.024399999999999998    -1.428989    0.0
    C    1.258255    0.669365    0.0
    C    1.227871    -0.729904    0.0
    C    -1.265555    0.684665    0.0
    C    -1.247871    -0.732304    0.0
    H    2.4900710000000004    2.443847    0.0
    H    4.652253    1.218189    0.0
    H    4.6060620000000005    -1.271549    0.0
    H    2.46055    -2.4810589999999997    0.0
    H    -0.0225    -2.510166    0.0
    H    -2.4751499999999997    -2.4987589999999997    0.0
    H    -4.611862    -1.270649    0.0
    H    -4.618952999999999    1.206689    0.0
    H    -2.4816710000000004    2.444747    0.0
    H    0.032    2.144787    -0.858485
    H    0.032    2.144787    0.858485

