%NProcShared=48
%mem = 190GB
#n M062X/6-311++G(d,p) TD(NStates=1) EmpiricalDispersion=GD3 SP
 
 SP_-150

1 1
    C    2.494755    1.361631    -0.0
    C    3.7073579999999993    0.6763889999999998    -0.0
    C    3.6846609999999997    -0.7051299999999998    -0.0
    C    2.4551060000000002    -1.4024880000000004    -0.0
    C    -2.470706    -1.4115880000000003    -0.0
    C    -3.680061    -0.7175299999999998    -0.0
    C    -3.6909079999999994    0.6693389999999998    -0.0
    C    -2.481055    1.362231    -0.0
    C    0.0045000000000000005    1.442369    -0.0
    C    -0.012200000000000003    -1.428689    0.0
    C    1.259855    0.6731149999999999    -0.0
    C    1.233471    -0.730954    -0.0
    C    -1.2635049999999999    0.6807649999999998    -0.0
    C    -1.2434709999999998    -0.7321539999999999    -0.0
    H    2.484671000000001    2.4450469999999997    -0.0
    H    4.642202999999999    1.2164389999999998    -0.0
    H    4.607062000000001    -1.269449    -0.0
    H    2.4646499999999993    -2.485258999999999    -0.0
    H    -0.011250000000000003    -2.510016    0.0
    H    -2.471949999999999    -2.494108999999999    -0.0
    H    -4.609962000000001    -1.268999    -0.0
    H    -4.625552999999999    1.210689    -0.0
    H    -2.480471000000001    2.445497    -0.0
    H    0.016    2.1432870000000004    -0.8568350000000001
    H    0.016    2.1432870000000004    0.8568350000000001

