%NProcShared=48
%mem = 190GB
#n M062X/6-311++G(d,p) TD(NStates=1) EmpiricalDispersion=GD3 SP
 
 SP_100

1 1
    C    2.484755    1.360131    0.0
    C    3.6903580000000002    0.666264    0.0
    C    3.681161    -0.72438    0.0
    C    2.474981    -1.4146129999999997    0.0
    C    -2.451581    -1.4009629999999997    0.0
    C    -3.688061    -0.7057800000000001    0.0
    C    -3.7150330000000005    0.676839    0.0
    C    -2.505305    1.3592309999999999    0.0
    C    -0.006625000000000001    1.458869    0.0
    C    0.018299999999999997    -1.429439    0.0
    C    1.26498    0.682865    0.0
    C    1.244471    -0.731329    0.0
    C    -1.2595049999999999    0.6713900000000002    0.0
    C    -1.229471    -0.7295290000000001    0.0
    H    2.4876709999999997    2.4431719999999997    0.0
    H    4.625703    1.206439    0.0
    H    4.611812    -1.273574    0.0
    H    2.4726500000000002    -2.4968840000000005    0.0
    H    0.016875    -2.5103910000000003    0.0
    H    -2.4617000000000004    -2.4836090000000004    0.0
    H    -4.607462    -1.274249    0.0
    H    -4.650678    1.2150640000000001    0.0
    H    -2.4939709999999997    2.442497    0.0
    H    -0.024    2.1470369999999996    -0.8609600000000001
    H    -0.024    2.1470369999999996    0.8609600000000001

