%NProcShared=48
%mem = 190GB
#n M062X/6-311++G(d,p) TD(NStates=1) EmpiricalDispersion=GD3 SP
 
 SP_-50

1 1
    C    2.494655    1.360731    -0.0
    C    3.704908    0.674014    -0.0
    C    3.684561    -0.7099799999999999    -0.0
    C    2.459181    -1.405113    -0.0
    C    -2.4669810000000005    -1.409663    -0.0
    C    -3.682261    -0.71618    -0.0
    C    -3.6966829999999997    0.670489    -0.0
    C    -2.487805    1.361031    -0.0
    C    0.0022250000000000004    1.450069    -0.0
    C    -0.0060999999999999995    -1.429039    0.0
    C    1.2610299999999999    0.675115    -0.0
    C    1.2352709999999998    -0.730729    -0.0
    C    -1.262855    0.6789400000000001    -0.0
    C    -1.2402710000000001    -0.731329    -0.0
    H    2.487471    2.4440220000000004    -0.0
    H    4.640053    1.213689    -0.0
    H    4.608312000000001    -1.2715239999999999    -0.0
    H    2.4659500000000003    -2.4877339999999997    -0.0
    H    -0.005625    -2.510191    0.0
    H    -2.4696000000000002    -2.492159    -0.0
    H    -4.609762    -1.271299    -0.0
    H    -4.631728    1.2108139999999998    -0.0
    H    -2.485371    2.444247    -0.0
    H    0.008    2.145037    -0.85876
    H    0.008    2.145037    0.85876

