%NProcShared=48
%mem = 190GB
#n M062X/6-311++G(d,p) TD(NStates=1) EmpiricalDispersion=GD3 SP
 
 SP_100

1 1
    C    2.457455    1.362231    0.0
    C    3.6599079999999997    0.654539    0.0
    C    3.6720610000000002    -0.7443299999999999    0.0
    C    2.5021059999999995    -1.430188    0.0
    C    -2.4241060000000005    -1.3846880000000001    0.0
    C    -3.695061    -0.6823299999999999    0.0
    C    -3.742158    0.689789    0.0
    C    -2.525955    1.3592309999999999    0.0
    C    -0.02185    1.451169    0.0
    C    0.061    -1.429089    0.0
    C    1.271105    0.6961649999999999    0.0
    C    1.262671    -0.733954    0.0
    C    -1.2528549999999998    0.657915    0.0
    C    -1.2126709999999998    -0.727954    0.0
    H    2.476471    2.445097    0.0
    H    4.594552999999999    1.197689    0.0
    H    4.6163620000000005    -1.2705989999999998    0.0
    H    2.48595    -2.5121089999999997    0.0
    H    0.05625    -2.510216    0.0
    H    -2.4494500000000006    -2.467859    0.0
    H    -4.601862000000001    -1.2728490000000001    0.0
    H    -4.677803000000001    1.226439    0.0
    H    -2.497471    2.4428469999999995    0.0
    H    -0.08    2.1452869999999997    -0.859035
    H    -0.08    2.1452869999999997    0.859035

