%NProcShared=48
%mem = 190GB
#n M062X/6-311++G(d,p) TD(NStates=1) EmpiricalDispersion=GD3 SP
 
 SP_50

1 1
    C    2.482855    1.360731    0.0
    C    3.689408    0.6666139999999999    0.0
    C    3.6805609999999995    -0.72338    0.0
    C    2.474881    -1.4144130000000001    0.0
    C    -2.4514810000000002    -1.400763    0.0
    C    -3.6874609999999994    -0.70478    0.0
    C    -3.714083    0.6771889999999999    0.0
    C    -2.503405    1.3598309999999998    0.0
    C    -0.006575    1.454469    0.0
    C    0.018299999999999997    -1.429239    0.0
    C    1.26483    0.6828150000000001    0.0
    C    1.244871    -0.7316290000000001    0.0
    C    -1.2593549999999998    0.67134    0.0
    C    -1.229871    -0.729829    0.0
    H    2.4854710000000004    2.443822    0.0
    H    4.624552999999999    1.207189    0.0
    H    4.611512    -1.2723239999999998    0.0
    H    2.47295    -2.496734    0.0
    H    0.016875    -2.5102910000000005    0.0
    H    -2.462    -2.483459    0.0
    H    -4.607162000000001    -1.272999    0.0
    H    -4.649527999999999    1.2158140000000002    0.0
    H    -2.4917710000000004    2.4431469999999997    0.0
    H    -0.024    2.146037    -0.8598600000000001
    H    -0.024    2.146037    0.8598600000000001

