%NProcShared=48
%mem = 190GB
#n M062X/6-311++G(d,p) TD(NStates=1) EmpiricalDispersion=GD3 SP
 
 SP_150

1 1
    C    2.498355    1.358631    0.0
    C    3.704358000000001    0.6709390000000002    0.0
    C    3.6856609999999996    -0.7168300000000001    0.0
    C    2.463456    -1.4081379999999994    0.0
    C    -2.4634560000000003    -1.4081379999999997    0.0
    C    -3.6856609999999996    -0.7168300000000002    0.0
    C    -3.704358000000001    0.6709390000000002    0.0
    C    -2.498355    1.358631    0.0
    C    -0.00015000000000000083    1.4665689999999998    0.0
    C    0.0    -1.429789    0.0
    C    1.262505    0.6772150000000001    0.0
    C    1.236271    -0.7299040000000001    0.0
    C    -1.262505    0.6772150000000002    0.0
    C    -1.2362710000000003    -0.7299040000000001    0.0
    H    2.4946709999999994    2.441697    0.0
    H    4.640203    1.2094390000000002    0.0
    H    4.610161999999999    -1.2760989999999999    0.0
    H    2.4666500000000013    -2.490509000000001    0.0
    H    0.0    -2.5105660000000007    0.0
    H    -2.4666500000000013    -2.490509000000001    0.0
    H    -4.610161999999999    -1.2760989999999999    0.0
    H    -4.640203    1.2094390000000002    0.0
    H    -2.4946709999999994    2.4416969999999996    0.0
    H    0.0    2.1487869999999996    -0.8628849999999999
    H    0.0    2.1487869999999996    0.8628849999999999

