%NProcShared=48
%mem = 190GB
#n M062X/6-311++G(d,p) TD(NStates=1) EmpiricalDispersion=GD3 SP
 
 SP_-25

1 1
    C    2.4917050000000005    1.360731    -0.0
    C    3.701033    0.672164    -0.0
    C    3.6835609999999996    -0.71333    -0.0
    C    2.463106    -1.407438    -0.0
    C    -2.463106    -1.407438    -0.0
    C    -3.6835609999999996    -0.71333    -0.0
    C    -3.701033    0.672164    -0.0
    C    -2.4917050000000005    1.360731    -0.0
    C    2.5000000000000282e-05    1.4511689999999997    -0.0
    C    0.0    -1.4290890000000003    0.0
    C    1.2619799999999999    0.6770400000000001    -0.0
    C    1.237671    -0.730954    -0.0
    C    -1.2619799999999999    0.6770400000000001    -0.0
    C    -1.237671    -0.730954    -0.0
    H    2.4869710000000005    2.4439719999999996    -0.0
    H    4.636177999999999    1.212064    -0.0
    H    4.6091120000000005    -1.2717239999999999    -0.0
    H    2.4677000000000002    -2.4899839999999998    -0.0
    H    0.0    -2.5102160000000002    0.0
    H    -2.4677000000000002    -2.4899839999999998    -0.0
    H    -4.6091120000000005    -1.2717239999999999    -0.0
    H    -4.636177999999999    1.212064    -0.0
    H    -2.4869710000000005    2.4439719999999996    -0.0
    H    0.0    2.145287    -0.859035
    H    0.0    2.145287    0.859035

