%NProcShared=32
%mem = 128GB
#n M062X/6-311++G(d,p) TD(NStates=1) EmpiricalDispersion=GD3 SP
 
 SP_-75

1 1
    C    2.47215    1.37    0.0
    C    3.6768249999999996    0.670125    0.0
    C    3.677    -0.7237    0.0
    C    2.4866    -1.4125500000000002    0.0
    C    -2.4398000000000004    -1.38525    0.0
    C    -3.6908    -0.6865    0.0
    C    -3.726175    0.691275    0.0
    C    -2.51325    1.3681999999999999    0.0
    C    -0.013125    1.4621    0.0
    C    0.0366    -1.4205    0.0
    C    1.2675750000000001    0.6971749999999999    0.0
    C    1.2525000000000002    -0.7238999999999999    0.0
    C    -1.2566249999999999    0.674225    0.0
    C    -1.2225    -0.7203    0.0
    H    2.4818000000000002    2.452975    0.0
    H    4.611825    1.2117749999999998    0.0
    H    4.61365    -1.2630249999999998    0.0
    H    2.4784499999999996    -2.494675    0.0
    H    0.03375    -2.5016    0.0
    H    -2.45655    -2.4681249999999997    0.0
    H    -4.6049500000000005    -1.2643750000000002    0.0
    H    -4.6617750000000004    1.229025    0.0
    H    -2.4944    2.451625    0.0
    H    -0.048    2.1545    -0.8596
    H    -0.048    2.1545    0.8596

