%NProcShared=32
%mem = 128GB
#n M062X/6-311++G(d,p) TD(NStates=1) EmpiricalDispersion=GD3 SP
 
 SP_75

1 1
    C    2.48965    1.3681999999999999    0.0
    C    3.6951750000000003    0.676475    0.0
    C    3.6828    -0.7133    0.0
    C    2.4711999999999996    -1.4038499999999996    0.0
    C    -2.4556    -1.3947499999999997    0.0
    C    -3.6874    -0.7009    0.0
    C    -3.711625    0.683525    0.0
    C    -2.50335    1.3676    0.0
    C    -0.0044750000000000015    1.4708999999999999    0.0
    C    0.012200000000000003    -1.4209    0.0
    C    1.264225    0.6896250000000002    0.0
    C    1.2417    -0.7221000000000001    0.0
    C    -1.260575    0.6819750000000001    0.0
    C    -1.2317000000000002    -0.7209    0.0
    H    2.4903999999999997    2.4512250000000004    0.0
    H    4.630775    1.2160250000000001    0.0
    H    4.61135    -1.265975    0.0
    H    2.4705500000000002    -2.4861250000000004    0.0
    H    0.01125    -2.5018000000000002    0.0
    H    -2.4632500000000004    -2.4772750000000006    0.0
    H    -4.6084499999999995    -1.266425    0.0
    H    -4.647425    1.221775    0.0
    H    -2.4945999999999997    2.450775    0.0
    H    -0.016    2.1565    -0.8618
    H    -0.016    2.1565    0.8618

