%NProcShared=32
%mem = 128GB
#n M062X/6-311++G(d,p) TD(NStates=1) EmpiricalDispersion=GD3 SP
 
 SP_0

1 1
    C    2.4986    1.3691    0.0
    C    3.70925    0.6843999999999999    0.0
    C    3.6859    -0.6983999999999999    0.0
    C    2.45535    -1.39425    0.0
    C    -2.47095    -1.40335    0.0
    C    -3.6813000000000002    -0.7107999999999999    0.0
    C    -3.6927999999999996    0.6773499999999999    0.0
    C    -2.4849    1.3697    0.0
    C    0.0044    1.4599    0.0
    C    -0.012199999999999999    -1.4204    0.0
    C    1.2602    0.68185    0.0
    C    1.2327    -0.7216499999999999    0.0
    C    -1.2638500000000001    0.6895    0.0
    C    -1.2427000000000001    -0.72285    0.0
    H    2.4891000000000005    2.4524    0.0
    H    4.644550000000001    1.22365    0.0
    H    4.6077    -1.2633    0.0
    H    2.4639999999999995    -2.4768999999999997    0.0
    H    -0.01125    -2.50155    0.0
    H    -2.4712999999999994    -2.4857499999999995    0.0
    H    -4.6106    -1.26285    0.0
    H    -4.6279    1.2178999999999998    0.0
    H    -2.4849000000000006    2.45285    0.0
    H    0.016    2.154    -0.8590500000000001
    H    0.016    2.154    0.8590500000000001

