%NProcShared=32
%mem = 128GB
#n M062X/6-311++G(d,p) TD(NStates=1) EmpiricalDispersion=GD3 SP
 
 SP_50

1 1
    C    2.5093500000000004    1.3685    0.0
    C    3.721825    0.6896    0.0
    C    3.6895    -0.6893499999999999    0.0
    C    2.443675    -1.387475    0.0
    C    -2.482675    -1.410225    0.0
    C    -3.678    -0.7203499999999999    0.0
    C    -3.6806999999999994    0.671975    0.0
    C    -2.4751000000000003    1.37    0.0
    C    0.01095    1.4609999999999999    0.0
    C    -0.0305    -1.4204500000000002    0.0
    C    1.2574999999999998    0.6761249999999999    0.0
    C    1.2250999999999999    -0.720675    0.0
    C    -1.2666250000000001    0.6952499999999999    0.0
    C    -1.2501000000000002    -0.723675    0.0
    H    2.4928    2.4519    0.0
    H    4.657325    1.227775    0.0
    H    4.605600000000001    -1.2639500000000001    0.0
    H    2.45845    -2.4703    0.0
    H    -0.028125    -2.5015749999999994    0.0
    H    -2.4766999999999997    -2.492425    0.0
    H    -4.61285    -1.2628249999999999    0.0
    H    -4.6156999999999995    1.2133999999999998    0.0
    H    -2.4823    2.4530250000000002    0.0
    H    0.04    2.15425    -0.859325
    H    0.04    2.15425    0.859325

