%NProcShared=32
%mem = 128GB
#n M062X/6-311++G(d,p) TD(NStates=1) EmpiricalDispersion=GD3 SP
 
 SP_-50

1 1
    C    2.49965    1.3697    0.0
    C    3.7121749999999993    0.6865999999999999    0.0
    C    3.6863    -0.6940499999999998    0.0
    C    2.4513250000000006    -1.3917250000000003    0.0
    C    -2.474725    -1.4053750000000003    0.0
    C    -3.6794000000000002    -0.7126499999999999    0.0
    C    -3.6874999999999996    0.6760249999999999    0.0
    C    -2.4791    1.3706    0.0
    C    0.006650000000000001    1.4544000000000001    0.0
    C    -0.018300000000000004    -1.42015    0.0
    C    1.2591    0.679875    0.0
    C    1.2307000000000001    -0.721725    0.0
    C    -1.264575    0.6913499999999999    0.0
    C    -1.2456999999999998    -0.7235249999999999    0.0
    H    2.487400000000001    2.4531    0.0
    H    4.6472750000000005    1.2260249999999997    0.0
    H    4.6066    -1.2618500000000001    0.0
    H    2.4625499999999994    -2.474499999999999    0.0
    H    -0.016875    -2.501425    0.0
    H    -2.473499999999999    -2.487774999999999    0.0
    H    -4.610950000000001    -1.2611750000000002    0.0
    H    -4.6223    1.2173999999999998    0.0
    H    -2.481100000000001    2.4537750000000003    0.0
    H    0.024    2.15275    -0.8576750000000001
    H    0.024    2.15275    0.8576750000000001

