%NProcShared=32
%mem = 128GB
#n M062X/6-311++G(d,p) TD(NStates=1) EmpiricalDispersion=GD3 SP
 
 SP_-50

1 1
    C    2.4908    1.3697    0.0
    C    3.70055    0.6810499999999999    0.0
    C    3.6833    -0.7040999999999998    0.0
    C    2.4631000000000003    -1.3987000000000003    0.0
    C    -2.4631    -1.3987    0.0
    C    -3.6833    -0.7041    0.0
    C    -3.70055    0.6810499999999999    0.0
    C    -2.4908    1.3697    0.0
    C    5.0000000000000565e-05    1.4577    0.0
    C    0.0    -1.4203000000000001    0.0
    C    1.2619500000000001    0.68565    0.0
    C    1.2379000000000002    -0.7223999999999999    0.0
    C    -1.2619500000000001    0.6856499999999999    0.0
    C    -1.2378999999999998    -0.7223999999999999    0.0
    H    2.485900000000001    2.4529500000000004    0.0
    H    4.63565    1.2211499999999997    0.0
    H    4.609    -1.26245    0.0
    H    2.4677999999999995    -2.4812499999999993    0.0
    H    0.0    -2.5015    0.0
    H    -2.4677999999999995    -2.4812499999999993    0.0
    H    -4.609    -1.26245    0.0
    H    -4.63565    1.2211499999999997    0.0
    H    -2.485900000000001    2.45295    0.0
    H    0.0    2.1535    -0.8585
    H    0.0    2.1535    0.8585

