%NProcShared=32
%mem = 128GB
#n M062X/6-311++G(d,p) TD(NStates=1) EmpiricalDispersion=GD3 SP
 
 SP_75

1 1
    C    2.5191500000000007    1.3681999999999999    0.0
    C    3.7339249999999997    0.694975    0.0
    C    3.6927999999999996    -0.6798    0.0
    C    2.4319500000000005    -1.3806    0.0
    C    -2.4943499999999994    -1.4170000000000003    0.0
    C    -3.6744    -0.7293999999999999    0.0
    C    -3.6681249999999994    0.666775    0.0
    C    -2.4643500000000005    1.3706    0.0
    C    0.017525    1.4598999999999998    0.0
    C    -0.0488    -1.4204000000000003    0.0
    C    1.2547249999999999    0.6703749999999999    0.0
    C    1.2177    -0.71985    0.0
    C    -1.269325    0.700975    0.0
    C    -1.2577    -0.7246499999999999    0.0
    H    2.4954000000000005    2.451725    0.0
    H    4.669525    1.232275    0.0
    H    4.603350000000001    -1.2639750000000003    0.0
    H    2.45305    -2.4636249999999995    0.0
    H    -0.045    -2.50155    0.0
    H    -2.4822499999999996    -2.4990249999999996    0.0
    H    -4.61495    -1.262175    0.0
    H    -4.602924999999999    1.2092749999999999    0.0
    H    -2.4786000000000006    2.453525    0.0
    H    0.064    2.1540000000000004    -0.85905
    H    0.064    2.1540000000000004    0.85905

