%NProcShared=32
%mem = 128GB
#n M062X/6-311++G(d,p) TD(NStates=1) EmpiricalDispersion=GD3 SP
 
 SP_-100

1 1
    C    2.4712    1.3703    0.0
    C    3.6763499999999993    0.6702999999999999    0.0
    C    3.6767000000000003    -0.7232    0.0
    C    2.48655    -1.4124500000000002    0.0
    C    -2.43975    -1.38515    0.0
    C    -3.6905    -0.6859999999999999    0.0
    C    -3.7257    0.6914499999999999    0.0
    C    -2.5123    1.3685    0.0
    C    -0.0131    1.4599    0.0
    C    0.036599999999999994    -1.4204    0.0
    C    1.2675    0.6971499999999999    0.0
    C    1.2527    -0.7240499999999999    0.0
    C    -1.2565499999999998    0.6741999999999999    0.0
    C    -1.2227000000000001    -0.72045    0.0
    H    2.4807000000000006    2.4533000000000005    0.0
    H    4.61125    1.2121499999999998    0.0
    H    4.6135    -1.2624    0.0
    H    2.4785999999999992    -2.4945999999999997    0.0
    H    0.03375    -2.50155    0.0
    H    -2.4566999999999997    -2.46805    0.0
    H    -4.604800000000001    -1.2637500000000002    0.0
    H    -4.661200000000001    1.2294    0.0
    H    -2.4933000000000005    2.45195    0.0
    H    -0.048    2.154    -0.8590500000000001
    H    -0.048    2.154    0.8590500000000001

