%NProcShared=32
%mem = 128GB
#n M062X/6-311++G(d,p) TD(NStates=1) EmpiricalDispersion=GD3 SP
 
 SP_-125

1 1
    C    2.4673000000000003    1.3706    0.0
    C    3.6719999999999997    0.668625    0.0
    C    3.6754    -0.72605    0.0
    C    2.4904249999999997    -1.414675    0.0
    C    -2.4358250000000004    -1.3828250000000002    0.0
    C    -3.6914999999999996    -0.6826499999999998    0.0
    C    -3.7295749999999996    0.6933    0.0
    C    -2.5152500000000004    1.3685    0.0
    C    -0.015275    1.4587999999999999    0.0
    C    0.0427    -1.4203500000000002    0.0
    C    1.268375    0.69905    0.0
    C    1.2553    -0.7244249999999999    0.0
    C    -1.2555999999999998    0.672275    0.0
    C    -1.2203    -0.7202249999999999    0.0
    H    2.4791000000000007    2.4535750000000007    0.0
    H    4.6068    1.2108999999999999    0.0
    H    4.61415    -1.261975    0.0
    H    2.4804999999999993    -2.4967749999999995    0.0
    H    0.039375    -2.501525    0.0
    H    -2.45495    -2.4657999999999998    0.0
    H    -4.604000000000001    -1.2635500000000002    0.0
    H    -4.665075    1.2310249999999998    0.0
    H    -2.4938000000000002    2.452    0.0
    H    -0.056    2.1537500000000005    -0.8587750000000001
    H    -0.056    2.1537500000000005    0.8587750000000001

