%NProcShared=32
%mem = 128GB
#n M062X/6-311++G(d,p) TD(NStates=1) EmpiricalDispersion=GD3 SP
 
 SP_125

1 1
    C    2.5269500000000003    1.3676    0.0
    C    3.742625    0.698325    0.0
    C    3.6954    -0.6740999999999999    0.0
    C    2.424200000000001    -1.3761500000000002    0.0
    C    -2.5021999999999998    -1.42165    0.0
    C    -3.6724    -0.7361000000000001    0.0
    C    -3.6603749999999997    0.663075    0.0
    C    -2.45845    1.3706    0.0
    C    0.021875    1.4621    0.0
    C    -0.061000000000000006    -1.4205    0.0
    C    1.252975    0.6665749999999999    0.0
    C    1.2125000000000001    -0.7191    0.0
    C    -1.271225    0.7048249999999999    0.0
    C    -1.2625    -0.7251    0.0
    H    2.4986    2.4511749999999997    0.0
    H    4.678425000000001    1.234775    0.0
    H    4.60205    -1.264825    0.0
    H    2.44925    -2.459275    0.0
    H    -0.05625    -2.5016    0.0
    H    -2.4857499999999995    -2.503525    0.0
    H    -4.61655    -1.262575    0.0
    H    -4.595174999999999    1.206025    0.0
    H    -2.4776000000000002    2.453425    0.0
    H    0.08    2.1545    -0.8596
    H    0.08    2.1545    0.8596

