%NProcShared=32
%mem = 128GB
#n M062X/6-311++G(d,p) TD(NStates=1) EmpiricalDispersion=GD3 SP
 
 SP_-125

1 1
    C    2.4850000000000003    1.3706    0.0
    C    3.6952499999999993    0.6797249999999999    0.0
    C    3.6814    -0.7059499999999999    0.0
    C    2.466875    -1.4007250000000002    0.0
    C    -2.459075    -1.3961750000000004    0.0
    C    -3.6837    -0.6997499999999998    0.0
    C    -3.703474999999999    0.6832499999999999    0.0
    C    -2.4918500000000003    1.3703    0.0
    C    -0.0020749999999999987    1.4522    0.0
    C    0.006100000000000005    -1.4200500000000003    0.0
    C    1.262675    0.6874999999999999    0.0
    C    1.2409    -0.7230749999999999    0.0
    C    -1.26085    0.6836749999999999    0.0
    C    -1.2359    -0.7224749999999999    0.0
    H    2.482100000000001    2.4538750000000005    0.0
    H    4.63005    1.2206499999999998    0.0
    H    4.609350000000001    -1.2607750000000002    0.0
    H    2.4699999999999993    -2.483274999999999    0.0
    H    0.0056250000000000015    -2.5013749999999995    0.0
    H    -2.4663499999999994    -2.478849999999999    0.0
    H    -4.607900000000001    -1.2610000000000001    0.0
    H    -4.638375    1.2235249999999998    0.0
    H    -2.484200000000001    2.45365    0.0
    H    -0.008    2.1522500000000004    -0.857125
    H    -0.008    2.1522500000000004    0.857125

