%NProcShared=32
%mem = 128GB
#n M062X/6-311++G(d,p) TD(NStates=1) EmpiricalDispersion=GD3 SP
 
 SP_25

1 1
    C    2.51135    1.3688    0.0
    C    3.7252249999999996    0.6916249999999999    0.0
    C    3.6902    -0.6854999999999998    0.0
    C    2.4397    -1.3850500000000003    0.0
    C    -2.4865    -1.41235    0.0
    C    -3.6764    -0.7227    0.0
    C    -3.6758749999999996    0.6704749999999999    0.0
    C    -2.47025    1.3706    0.0
    C    0.013175000000000001    1.4577    0.0
    C    -0.0366    -1.4203000000000001    0.0
    C    1.256475    0.674175    0.0
    C    1.2229    -0.7205999999999999    0.0
    C    -1.267425    0.6971249999999999    0.0
    C    -1.2529    -0.7242    0.0
    H    2.4922000000000004    2.4522749999999998    0.0
    H    4.6606250000000005    1.2297749999999998    0.0
    H    4.60465    -1.263125    0.0
    H    2.4568499999999998    -2.4679749999999996    0.0
    H    -0.03375    -2.5014999999999996    0.0
    H    -2.4787499999999993    -2.4945249999999994    0.0
    H    -4.6133500000000005    -1.261775    0.0
    H    -4.610675    1.2125249999999999    0.0
    H    -2.4796000000000005    2.4536250000000006    0.0
    H    0.048    2.1535    -0.8585
    H    0.048    2.1535    0.8585

