%NProcShared=32
%mem = 128GB
#n M062X/6-311++G(d,p) TD(NStates=1) EmpiricalDispersion=GD3 SP
 
 SP_75

1 1
    C    2.5103000000000004    1.3681999999999999    0.0
    C    3.7222999999999997    0.689425    0.0
    C    3.6898    -0.68985    0.0
    C    2.443725    -1.387575    0.0
    C    -2.4827249999999994    -1.410325    0.0
    C    -3.6783    -0.72085    0.0
    C    -3.6811749999999996    0.6718    0.0
    C    -2.4760500000000003    1.3697    0.0
    C    0.010925    1.4631999999999998    0.0
    C    -0.0305    -1.4205500000000002    0.0
    C    1.2575749999999999    0.67615    0.0
    C    1.2248999999999999    -0.7205250000000001    0.0
    C    -1.2667000000000002    0.6952750000000001    0.0
    C    -1.2499000000000002    -0.723525    0.0
    H    2.4939    2.451575    0.0
    H    4.6579    1.2274    0.0
    H    4.6057500000000005    -1.2645750000000002    0.0
    H    2.4583000000000004    -2.4703749999999998    0.0
    H    -0.028125    -2.5016249999999998    0.0
    H    -2.4765499999999996    -2.4924999999999997    0.0
    H    -4.6129999999999995    -1.26345    0.0
    H    -4.616275    1.213025    0.0
    H    -2.4834000000000005    2.4527    0.0
    H    0.04    2.15475    -0.859875
    H    0.04    2.15475    0.859875

