%NProcShared=32
%mem = 128GB
#n M062X/6-311++G(d,p) TD(NStates=1) EmpiricalDispersion=GD3 SP
 
 SP_-100

1 1
    C    2.4653    1.3703    0.0
    C    3.6685999999999996    0.6666    0.0
    C    3.6747    -0.7299    0.0
    C    2.4943999999999997    -1.4171    0.0
    C    -2.4320000000000004    -1.3807    0.0
    C    -3.6931    -0.6802999999999999    0.0
    C    -3.7344    0.6948    0.0
    C    -2.5201000000000002    1.3679    0.0
    C    -0.0175    1.4621    0.0
    C    0.048799999999999996    -1.4205    0.0
    C    1.2694    0.701    0.0
    C    1.2575    -0.7244999999999999    0.0
    C    -1.2548    0.6704    0.0
    C    -1.2175    -0.7197    0.0
    H    2.4797000000000002    2.4532000000000003    0.0
    H    4.6034999999999995    1.2088999999999999    0.0
    H    4.6151    -1.2628    0.0
    H    2.4820999999999995    -2.4991    0.0
    H    0.045    -2.5016    0.0
    H    -2.4529    -2.4637    0.0
    H    -4.6035    -1.2646000000000002    0.0
    H    -4.670100000000001    1.2319    0.0
    H    -2.4965    2.4514    0.0
    H    -0.064    2.1545    -0.8596
    H    -0.064    2.1545    0.8596

