%NProcShared=32
%mem = 128GB
#n M062X/6-311++G(d,p) TD(NStates=1) EmpiricalDispersion=GD3 SP
 
 SP_75

1 1
    C    2.50145    1.3681999999999999    0.0
    C    3.710675    0.683875    0.0
    C    3.6868    -0.6999    0.0
    C    2.4555    -1.3945499999999997    0.0
    C    -2.4711    -1.4036499999999998    0.0
    C    -3.6822    -0.7122999999999999    0.0
    C    -3.694225    0.676825    0.0
    C    -2.48775    1.3688    0.0
    C    0.004324999999999999    1.4665    0.0
    C    -0.0122    -1.4207    0.0
    C    1.260425    0.6819250000000001    0.0
    C    1.2321    -0.7212000000000001    0.0
    C    -1.264075    0.689575    0.0
    C    -1.2421000000000002    -0.7223999999999999    0.0
    H    2.4924    2.4514250000000004    0.0
    H    4.646275    1.222525    0.0
    H    4.60815    -1.2651750000000002    0.0
    H    2.46355    -2.477125    0.0
    H    -0.011250000000000001    -2.5017    0.0
    H    -2.47085    -2.4859750000000003    0.0
    H    -4.61105    -1.2647249999999999    0.0
    H    -4.629625    1.216775    0.0
    H    -2.4882    2.4518750000000002    0.0
    H    0.016    2.1555    -0.8607
    H    0.016    2.1555    0.8607

