%NProcShared=32
%mem = 128GB
#n M062X/6-311++G(d,p) TD(NStates=1) EmpiricalDispersion=GD3 SP
 
 SP_-25

1 1
    C    2.4917500000000006    1.3694    0.0
    C    3.7010249999999996    0.680875    0.0
    C    3.6835999999999998    -0.7045999999999999    0.0
    C    2.4631499999999997    -1.3988    0.0
    C    -2.4631499999999997    -1.3988    0.0
    C    -3.6835999999999998    -0.7045999999999999    0.0
    C    -3.7010249999999996    0.680875    0.0
    C    -2.4917500000000006    1.3694    0.0
    C    2.5000000000000282e-05    1.4598999999999998    0.0
    C    0.0    -1.4204000000000003    0.0
    C    1.262025    0.685675    0.0
    C    1.2377    -0.72225    0.0
    C    -1.262025    0.685675    0.0
    C    -1.2377    -0.72225    0.0
    H    2.4870000000000005    2.4526250000000003    0.0
    H    4.636225    1.220775    0.0
    H    4.6091500000000005    -1.2630750000000002    0.0
    H    2.46765    -2.4813249999999996    0.0
    H    0.0    -2.50155    0.0
    H    -2.46765    -2.4813249999999996    0.0
    H    -4.6091500000000005    -1.2630750000000002    0.0
    H    -4.636225    1.220775    0.0
    H    -2.4870000000000005    2.4526250000000003    0.0
    H    0.0    2.1540000000000004    -0.85905
    H    0.0    2.1540000000000004    0.85905

