%NProcShared=32
%mem = 128GB
#n M062X/6-311++G(d,p) TD(NStates=1) EmpiricalDispersion=GD3 SP
 
 SP_-100

1 1
    C    2.46235    1.3703    0.0
    C    3.664725    0.66475    0.0
    C    3.6737    -0.73325    0.0
    C    2.4983249999999995    -1.419425    0.0
    C    -2.4281250000000005    -1.378475    0.0
    C    -3.6944    -0.6774499999999999    0.0
    C    -3.73875    0.696475    0.0
    C    -2.524    1.3676    0.0
    C    -0.019700000000000002    1.4632    0.0
    C    0.054900000000000004    -1.42055    0.0
    C    1.27035    0.702925    0.0
    C    1.2599    -0.724725    0.0
    C    -1.253925    0.6685    0.0
    C    -1.2149    -0.719325    0.0
    H    2.4792    2.4531500000000004    0.0
    H    4.599625    1.2072749999999999    0.0
    H    4.6159    -1.263    0.0
    H    2.4838499999999994    -2.50135    0.0
    H    0.050625    -2.5016249999999998    0.0
    H    -2.451    -2.461525    0.0
    H    -4.60285    -1.265025    0.0
    H    -4.674550000000001    1.23315    0.0
    H    -2.4981    2.451125    0.0
    H    -0.07200000000000001    2.15475    -0.8598750000000001
    H    -0.07200000000000001    2.15475    0.8598750000000001

