%NProcShared=32
%mem = 128GB
#n M062X/6-311++G(d,p) TD(NStates=1) EmpiricalDispersion=GD3 SP
 
 SP_-125

1 1
    C    2.4791000000000003    1.3706    0.0
    C    3.687499999999999    0.6760249999999999    0.0
    C    3.6794000000000002    -0.7126499999999999    0.0
    C    2.474725    -1.4053750000000003    0.0
    C    -2.4513249999999998    -1.3917250000000003    0.0
    C    -3.6863    -0.6940499999999998    0.0
    C    -3.7121749999999993    0.6865999999999999    0.0
    C    -2.4996500000000004    1.3697    0.0
    C    -0.006474999999999999    1.4544    0.0
    C    0.018300000000000004    -1.4201500000000002    0.0
    C    1.264575    0.6913499999999999    0.0
    C    1.2456999999999998    -0.723525    0.0
    C    -1.2591    0.679875    0.0
    C    -1.2307000000000001    -0.721725    0.0
    H    2.4811000000000005    2.4537750000000003    0.0
    H    4.622299999999999    1.2173999999999998    0.0
    H    4.610950000000001    -1.2611750000000002    0.0
    H    2.4734999999999996    -2.487774999999999    0.0
    H    0.016875    -2.5014249999999993    0.0
    H    -2.4625499999999994    -2.474499999999999    0.0
    H    -4.6066    -1.2618500000000001    0.0
    H    -4.6472750000000005    1.226025    0.0
    H    -2.487400000000001    2.4531    0.0
    H    -0.024    2.15275    -0.857675
    H    -0.024    2.15275    0.857675

