%NProcShared=32
%mem = 128GB
#n M062X/6-311++G(d,p) TD(NStates=1) EmpiricalDispersion=GD3 SP
 
 SP_75

1 1
    C    2.5073500000000006    1.3681999999999999    0.0
    C    3.718425    0.687575    0.0
    C    3.6887999999999996    -0.6932    0.0
    C    2.4476500000000003    -1.3899    0.0
    C    -2.4788499999999996    -1.4081000000000001    0.0
    C    -3.6795999999999998    -0.718    0.0
    C    -3.6855249999999997    0.673475    0.0
    C    -2.4799500000000005    1.3694    0.0
    C    0.008725    1.4642999999999997    0.0
    C    -0.024399999999999998    -1.4206000000000003    0.0
    C    1.258525    0.678075    0.0
    C    1.2273    -0.72075    0.0
    C    -1.265825    0.6933750000000001    0.0
    C    -1.2473    -0.72315    0.0
    H    2.4934000000000003    2.451525    0.0
    H    4.654025    1.225775    0.0
    H    4.60655    -1.2647750000000002    0.0
    H    2.4600500000000003    -2.472625    0.0
    H    -0.0225    -2.50165    0.0
    H    -2.47465    -2.490325    0.0
    H    -4.61235    -1.263875    0.0
    H    -4.620724999999999    1.214275    0.0
    H    -2.4850000000000003    2.452425    0.0
    H    0.032    2.1550000000000002    -0.86015
    H    0.032    2.1550000000000002    0.86015

