%NProcShared=32
%mem = 128GB
#n M062X/6-311++G(d,p) TD(NStates=1) EmpiricalDispersion=GD3 SP
 
 SP_100

1 1
    C    2.4965    1.3679    0.0
    C    3.7034000000000002    0.68    0.0
    C    3.6851    -0.7071000000000001    0.0
    C    2.4634    -1.3992999999999998    0.0
    C    -2.4634    -1.3992999999999998    0.0
    C    -3.6851    -0.7071000000000001    0.0
    C    -3.7034000000000002    0.68    0.0
    C    -2.4965    1.3679    0.0
    C    -0.00010000000000000113    1.4708999999999999    0.0
    C    0.0    -1.4209    0.0
    C    1.2624    0.6858000000000001    0.0
    C    1.2367000000000001    -0.7215    0.0
    C    -1.2624    0.6858000000000001    0.0
    C    -1.2367000000000001    -0.7215    0.0
    H    2.4924999999999997    2.451    0.0
    H    4.6391    1.2189    0.0
    H    4.6099    -1.2662    0.0
    H    2.4669000000000003    -2.4817000000000005    0.0
    H    0.0    -2.5018000000000002    0.0
    H    -2.4669000000000003    -2.4817000000000005    0.0
    H    -4.6099    -1.2662    0.0
    H    -4.6391    1.2189    0.0
    H    -2.4924999999999997    2.451    0.0
    H    0.0    2.1565    -0.8618
    H    0.0    2.1565    0.8618

