%NProcShared=32
%mem = 128GB
#n M062X/6-311++G(d,p) TD(NStates=1) EmpiricalDispersion=GD3 SP
 
 SP_-25

1 1
    C    2.4947000000000004    1.3694    0.0
    C    3.7048999999999994    0.682725    0.0
    C    3.6845999999999997    -0.7012499999999999    0.0
    C    2.459225    -1.3964750000000001    0.0
    C    -2.4670249999999996    -1.4010250000000002    0.0
    C    -3.6822999999999997    -0.7074499999999999    0.0
    C    -3.6966749999999995    0.6792    0.0
    C    -2.4878500000000003    1.3697    0.0
    C    0.0022250000000000004    1.4587999999999999    0.0
    C    -0.0060999999999999995    -1.4203500000000002    0.0
    C    1.261075    0.68375    0.0
    C    1.2353    -0.7220249999999999    0.0
    C    -1.2629000000000001    0.687575    0.0
    C    -1.2403    -0.7226249999999999    0.0
    H    2.4875000000000007    2.452675    0.0
    H    4.6401    1.2224    0.0
    H    4.608350000000001    -1.2628750000000002    0.0
    H    2.4658999999999995    -2.4790749999999995    0.0
    H    -0.005625    -2.501525    0.0
    H    -2.46955    -2.4834999999999994    0.0
    H    -4.6098    -1.26265    0.0
    H    -4.631774999999999    1.219525    0.0
    H    -2.4854000000000003    2.4529    0.0
    H    0.008    2.1537500000000005    -0.8587750000000001
    H    0.008    2.1537500000000005    0.8587750000000001

