%NProcShared=32
%mem = 128GB
#n M062X/6-311++G(d,p) TD(NStates=1) EmpiricalDispersion=GD3 SP
 
 SP_125

1 1
    C    2.5181    1.3676    0.0
    C    3.731    0.6927749999999999    0.0
    C    3.6924    -0.6841499999999999    0.0
    C    2.4359750000000004    -1.3831250000000002    0.0
    C    -2.4905749999999998    -1.4149749999999999    0.0
    C    -3.6763000000000003    -0.7275500000000001    0.0
    C    -3.673425    0.6680999999999999    0.0
    C    -2.47015    1.3697    0.0
    C    0.015275    1.4654    0.0
    C    -0.0427    -1.42065    0.0
    C    1.255825    0.67235    0.0
    C    1.2197    -0.719775    0.0
    C    -1.2686000000000002    0.699125    0.0
    C    -1.2547000000000001    -0.723975    0.0
    H    2.4970999999999997    2.4510249999999996    0.0
    H    4.6668    1.2299    0.0
    H    4.60445    -1.265425    0.0
    H    2.4545000000000003    -2.466025    0.0
    H    -0.039375    -2.5016749999999996    0.0
    H    -2.4800499999999994    -2.497    0.0
    H    -4.614599999999999    -1.26385    0.0
    H    -4.608525    1.209775    0.0
    H    -2.4824    2.4526000000000003    0.0
    H    0.056    2.1552499999999997    -0.860425
    H    0.056    2.1552499999999997    0.860425

