%NProcShared=32
%mem = 128GB
#n M062X/6-311++G(d,p) TD(NStates=1) EmpiricalDispersion=GD3 SP
 
 SP_25

1 1
    C    2.5084    1.3688    0.0
    C    3.7213499999999997    0.6897749999999999    0.0
    C    3.6892    -0.6888499999999999    0.0
    C    2.4436250000000004    -1.3873750000000002    0.0
    C    -2.482625    -1.410125    0.0
    C    -3.6777    -0.71985    0.0
    C    -3.6802249999999996    0.6721499999999999    0.0
    C    -2.47415    1.3703    0.0
    C    0.010975    1.4588    0.0
    C    -0.0305    -1.42035    0.0
    C    1.257425    0.6760999999999999    0.0
    C    1.2253    -0.7208249999999999    0.0
    C    -1.26655    0.6952249999999999    0.0
    C    -1.2503    -0.7238249999999999    0.0
    H    2.4917000000000002    2.452225    0.0
    H    4.656750000000001    1.2281499999999999    0.0
    H    4.60545    -1.263325    0.0
    H    2.4585999999999997    -2.4702249999999997    0.0
    H    -0.028124999999999997    -2.5015249999999996    0.0
    H    -2.4768499999999993    -2.4923499999999996    0.0
    H    -4.6127    -1.2622    0.0
    H    -4.615125    1.2137749999999998    0.0
    H    -2.4812000000000003    2.4533500000000004    0.0
    H    0.04    2.15375    -0.8587750000000001
    H    0.04    2.15375    0.8587750000000001

