%NProcShared=32
%mem = 128GB
#n M062X/6-311++G(d,p) TD(NStates=1) EmpiricalDispersion=GD3 SP
 
 SP_-25

1 1
    C    2.5006000000000004    1.3694    0.0
    C    3.7126499999999996    0.686425    0.0
    C    3.6866    -0.6945499999999999    0.0
    C    2.451375    -1.391825    0.0
    C    -2.4747749999999997    -1.4054750000000003    0.0
    C    -3.6797    -0.7131499999999998    0.0
    C    -3.6879749999999993    0.67585    0.0
    C    -2.4800500000000003    1.3703    0.0
    C    0.006625000000000001    1.4566    0.0
    C    -0.018299999999999997    -1.4202500000000002    0.0
    C    1.259175    0.6799    0.0
    C    1.2305    -0.721575    0.0
    C    -1.26465    0.691375    0.0
    C    -1.2455    -0.7233749999999999    0.0
    H    2.4885000000000006    2.4527750000000004    0.0
    H    4.64785    1.22565    0.0
    H    4.606750000000001    -1.2624750000000002    0.0
    H    2.4623999999999997    -2.4745749999999993    0.0
    H    -0.016875    -2.5014749999999997    0.0
    H    -2.4733499999999995    -2.4878499999999995    0.0
    H    -4.6111    -1.2618    0.0
    H    -4.622875    1.2170249999999998    0.0
    H    -2.4822000000000006    2.45345    0.0
    H    0.024    2.1532500000000003    -0.858225
    H    0.024    2.1532500000000003    0.858225

