%NProcShared=32
%mem = 128GB
#n M062X/6-311++G(d,p) TD(NStates=1) EmpiricalDispersion=GD3 SP
 
 SP_75

1 1
    C    2.4955500000000006    1.3681999999999999    0.0
    C    3.702925    0.6801750000000001    0.0
    C    3.6847999999999996    -0.7066000000000001    0.0
    C    2.46335    -1.3991999999999998    0.0
    C    -2.4633499999999997    -1.3992    0.0
    C    -3.6847999999999996    -0.7066    0.0
    C    -3.702925    0.6801750000000001    0.0
    C    -2.4955500000000006    1.3681999999999999    0.0
    C    -7.500000000000041e-05    1.4686999999999997    0.0
    C    0.0    -1.4208000000000003    0.0
    C    1.262325    0.685775    0.0
    C    1.2369    -0.72165    0.0
    C    -1.262325    0.6857750000000001    0.0
    C    -1.2369    -0.72165    0.0
    H    2.4914    2.451325    0.0
    H    4.638525    1.219275    0.0
    H    4.60975    -1.2655750000000001    0.0
    H    2.4670500000000004    -2.481625    0.0
    H    0.0    -2.5017500000000004    0.0
    H    -2.4670500000000004    -2.481625    0.0
    H    -4.60975    -1.2655750000000001    0.0
    H    -4.638525    1.219275    0.0
    H    -2.4914    2.4513249999999998    0.0
    H    0.0    2.156    -0.86125
    H    0.0    2.156    0.86125

