%NProcShared=32
%mem = 128GB
#n M062X/6-311++G(d,p) TD(NStates=1) EmpiricalDispersion=GD3 SP
 
 SP_-50

1 1
    C    2.479    1.3697    0.0
    C    3.6850499999999995    0.6736499999999999    0.0
    C    3.6793000000000005    -0.7174999999999999    0.0
    C    2.4788    -1.408    0.0
    C    -2.4476000000000004    -1.3898    0.0
    C    -3.6885000000000003    -0.6926999999999999    0.0
    C    -3.71795    0.6877499999999999    0.0
    C    -2.5064    1.3685    0.0
    C    -0.00875    1.4621    0.0
    C    0.024399999999999998    -1.4205    0.0
    C    1.2657500000000002    0.69335    0.0
    C    1.2475    -0.7233    0.0
    C    -1.2584499999999998    0.67805    0.0
    C    -1.2275    -0.7208999999999999    0.0
    H    2.4839    2.45275    0.0
    H    4.620150000000001    1.2146499999999998    0.0
    H    4.6122    -1.26325    0.0
    H    2.4747999999999992    -2.4902499999999996    0.0
    H    0.0225    -2.5016    0.0
    H    -2.4601999999999995    -2.47255    0.0
    H    -4.606400000000001    -1.26415    0.0
    H    -4.653450000000001    1.22615    0.0
    H    -2.4923    2.45185    0.0
    H    -0.032    2.1544999999999996    -0.8596000000000001
    H    -0.032    2.1544999999999996    0.8596000000000001

