%NProcShared=16
%mem = 64GB
#n M062X/cc-pvtz TD EmpiricalDispersion=GD3 SP
 
 SP_-4

1 1
    C    2.4927    1.4331    0.0
    C    3.7015    0.7526999999999999    0.032
    C    3.6839    -0.6690999999999999    0.064
    C    2.4632    -1.4789    0.032
    C    -2.4632    -1.4789    -0.032
    C    -3.6839    -0.6690999999999999    -0.064
    C    -3.7015    0.7526999999999999    -0.032
    C    -2.4927    1.4331    0.0
    C    0.0    1.4941    0.0
    C    0.0    -1.5365000000000002    0.0
    C    1.2621    0.6496999999999999    -0.044
    C    1.2375    -0.7581    0.004
    C    -1.2621    0.6496999999999999    0.044
    C    -1.2375    -0.7581    -0.004
    H    2.4881    2.4723    0.0
    H    4.6368    1.2924    0.028000000000000004
    H    4.6093    -1.2597    0.008
    H    2.4675    -2.5174    0.032
    H    0.0    -2.6016    0.0
    H    -2.4675    -2.5174    -0.032
    H    -4.6093    -1.2597    -0.008
    H    -4.6368    1.2924    -0.028000000000000004
    H    -2.4881    2.4723    0.0
    H    0.0    2.3305000000000002    -0.8596
    H    0.0    2.3305000000000002    0.8596

