%NProcShared=16
%mem = 64GB
#n M062X/cc-pvtz TD EmpiricalDispersion=GD3 SP
 
 SP_-3

1 1
    C    2.4927    1.4171    0.0
    C    3.7015    0.7347    0.024
    C    3.6839    -0.6780999999999999    0.048
    C    2.4632    -1.4589    0.024
    C    -2.4632    -1.4589    -0.024
    C    -3.6839    -0.6780999999999999    -0.048
    C    -3.7015    0.7347    -0.024
    C    -2.4927    1.4171    0.0
    C    0.0    1.4861    0.0
    C    0.0    -1.5075    0.0
    C    1.2621    0.6587    -0.033
    C    1.2375    -0.7491    0.003
    C    -1.2621    0.6587    0.033
    C    -1.2375    -0.7491    -0.003
    H    2.4881    2.4673000000000003    0.0
    H    4.6368    1.2744    0.021
    H    4.6093    -1.2607000000000002    0.006
    H    2.4675    -2.5084    0.024
    H    0.0    -2.5766    0.0
    H    -2.4675    -2.5084    -0.024
    H    -4.6093    -1.2607000000000002    -0.006
    H    -4.6368    1.2744    -0.021
    H    -2.4881    2.4673000000000003    0.0
    H    0.0    2.2865    -0.8596
    H    0.0    2.2865    0.8596

