%NProcShared=16
%mem = 64GB
#n M062X/cc-pvtz TD EmpiricalDispersion=GD3 SP
 
 SP_3

1 1
    C    2.4927    1.3211    0.0
    C    3.7015    0.6266999999999999    -0.024
    C    3.6839    -0.7321    -0.048
    C    2.4632    -1.3389    -0.024
    C    -2.4632    -1.3389    0.024
    C    -3.6839    -0.7321    0.048
    C    -3.7015    0.6266999999999999    0.024
    C    -2.4927    1.3211    0.0
    C    0.0    1.4381    0.0
    C    0.0    -1.3335000000000001    0.0
    C    1.2621    0.7127    0.033
    C    1.2375    -0.6950999999999999    -0.003
    C    -1.2621    0.7127    -0.033
    C    -1.2375    -0.6950999999999999    0.003
    H    2.4881    2.4373    0.0
    H    4.6368    1.1663999999999999    -0.021
    H    4.6093    -1.2667    -0.006
    H    2.4675    -2.4543999999999997    -0.024
    H    0.0    -2.4265999999999996    0.0
    H    -2.4675    -2.4543999999999997    0.024
    H    -4.6093    -1.2667    0.006
    H    -4.6368    1.1663999999999999    0.021
    H    -2.4881    2.4373    0.0
    H    0.0    2.0225    -0.8596
    H    0.0    2.0225    0.8596

