%NProcShared=16
%mem = 64GB
#n M062X/cc-pvtz TD EmpiricalDispersion=GD3 SP
 
 SP_-5

1 1
    C    2.4927    1.4491    0.0
    C    3.7015    0.7706999999999999    0.04
    C    3.6839    -0.6600999999999999    0.08
    C    2.4632    -1.4989000000000001    0.04
    C    -2.4632    -1.4989000000000001    -0.04
    C    -3.6839    -0.6600999999999999    -0.08
    C    -3.7015    0.7706999999999999    -0.04
    C    -2.4927    1.4491    0.0
    C    0.0    1.5021    0.0
    C    0.0    -1.5655000000000001    0.0
    C    1.2621    0.6406999999999999    -0.05500000000000001
    C    1.2375    -0.7671    0.005
    C    -1.2621    0.6406999999999999    0.05500000000000001
    C    -1.2375    -0.7671    -0.005
    H    2.4881    2.4773    0.0
    H    4.6368    1.3104    0.035
    H    4.6093    -1.2587000000000002    0.01
    H    2.4675    -2.5263999999999998    0.04
    H    0.0    -2.6266    0.0
    H    -2.4675    -2.5263999999999998    -0.04
    H    -4.6093    -1.2587000000000002    -0.01
    H    -4.6368    1.3104    -0.035
    H    -2.4881    2.4773    0.0
    H    0.0    2.3745000000000003    -0.8596
    H    0.0    2.3745000000000003    0.8596

