%NProcShared=16
%mem = 64GB
#n M062X/cc-pvtz TD EmpiricalDispersion=GD3 SP
 
 SP_2

1 1
    C    2.4927    1.3371    0.0
    C    3.7015    0.6446999999999999    -0.016
    C    3.6839    -0.7231    -0.032
    C    2.4632    -1.3589    -0.016
    C    -2.4632    -1.3589    0.016
    C    -3.6839    -0.7231    0.032
    C    -3.7015    0.6446999999999999    0.016
    C    -2.4927    1.3371    0.0
    C    0.0    1.4461    0.0
    C    0.0    -1.3625    0.0
    C    1.2621    0.7037    0.022
    C    1.2375    -0.7041    -0.002
    C    -1.2621    0.7037    -0.022
    C    -1.2375    -0.7041    0.002
    H    2.4881    2.4423000000000004    0.0
    H    4.6368    1.1844    -0.014000000000000002
    H    4.6093    -1.2657    -0.004
    H    2.4675    -2.4634    -0.016
    H    0.0    -2.4516    0.0
    H    -2.4675    -2.4634    0.016
    H    -4.6093    -1.2657    0.004
    H    -4.6368    1.1844    0.014000000000000002
    H    -2.4881    2.4423000000000004    0.0
    H    0.0    2.0665    -0.8596
    H    0.0    2.0665    0.8596

