%NProcShared=16
%mem = 64GB
#n M062X/cc-pvtz TD EmpiricalDispersion=GD3 SP
 
 SP_-2

1 1
    C    2.4927    1.4011    0.0
    C    3.7015    0.7167    0.016
    C    3.6839    -0.6870999999999999    0.032
    C    2.4632    -1.4389    0.016
    C    -2.4632    -1.4389    -0.016
    C    -3.6839    -0.6870999999999999    -0.032
    C    -3.7015    0.7167    -0.016
    C    -2.4927    1.4011    0.0
    C    0.0    1.4781    0.0
    C    0.0    -1.4785000000000001    0.0
    C    1.2621    0.6677    -0.022
    C    1.2375    -0.7401    0.002
    C    -1.2621    0.6677    0.022
    C    -1.2375    -0.7401    -0.002
    H    2.4881    2.4623    0.0
    H    4.6368    1.2564    0.014000000000000002
    H    4.6093    -1.2617    0.004
    H    2.4675    -2.4993999999999996    0.016
    H    0.0    -2.5515999999999996    0.0
    H    -2.4675    -2.4993999999999996    -0.016
    H    -4.6093    -1.2617    -0.004
    H    -4.6368    1.2564    -0.014000000000000002
    H    -2.4881    2.4623    0.0
    H    0.0    2.2425    -0.8596
    H    0.0    2.2425    0.8596

