%NProcShared=16
%mem = 64GB
#n M062X/cc-pvtz TD EmpiricalDispersion=GD3 SP
 
 SP_5

1 1
    C    2.4927    1.2891    0.0
    C    3.7015    0.5907    -0.04
    C    3.6839    -0.7501    -0.08
    C    2.4632    -1.2989    -0.04
    C    -2.4632    -1.2989    0.04
    C    -3.6839    -0.7501    0.08
    C    -3.7015    0.5907    0.04
    C    -2.4927    1.2891    0.0
    C    0.0    1.4221    0.0
    C    0.0    -1.2755    0.0
    C    1.2621    0.7307    0.05500000000000001
    C    1.2375    -0.6770999999999999    -0.005
    C    -1.2621    0.7307    -0.05500000000000001
    C    -1.2375    -0.6770999999999999    0.005
    H    2.4881    2.4273000000000002    0.0
    H    4.6368    1.1303999999999998    -0.035
    H    4.6093    -1.2687    -0.01
    H    2.4675    -2.4364    -0.04
    H    0.0    -2.3766    0.0
    H    -2.4675    -2.4364    0.04
    H    -4.6093    -1.2687    0.01
    H    -4.6368    1.1303999999999998    0.035
    H    -2.4881    2.4273000000000002    0.0
    H    0.0    1.9345    -0.8596
    H    0.0    1.9345    0.8596

