%NProcShared=16
%mem = 64GB
%Chk=check_sp_1
#n M062X/cc-pvtz TD EmpiricalDispersion=GD3 SP
 
 SP_-4

1 1
    C    2.4927    1.3371    -0.068
    C    3.7015    0.6807    -0.012
    C    3.6839    -0.6930999999999999    0.0
    C    2.4632    -1.4229    0.08
    C    -2.4632    -1.3749    0.08
    C    -3.6839    -0.7171    0.0
    C    -3.7015    0.6807    -0.012
    C    -2.4927    1.4011    -0.068
    C    0.0    1.4621    -0.132
    C    0.0    -1.4205    0.10800000000000001
    C    1.2621    0.6697    -0.032
    C    1.2375    -0.7341    0.052000000000000005
    C    -1.2621    0.7017    -0.032
    C    -1.2375    -0.7101    0.052000000000000005
    H    2.4881    2.3963    -0.072
    H    4.6368    1.1844    0.048
    H    4.6093    -1.2877    -0.05600000000000001
    H    2.4675    -2.5534    0.08399999999999999
    H    0.0    -2.5016    0.11200000000000002
    H    -2.4675    -2.4093999999999998    0.08399999999999999
    H    -4.6093    -1.2397    -0.05600000000000001
    H    -4.6368    1.2564    0.048
    H    -2.4881    2.5083    -0.072
    H    0.008    2.1545    -0.9796
    H    -0.008    2.1545    0.7396

