%NProcShared=16
%mem = 64GB
%Chk=check_sp_3
#n M062X/cc-pvtz TD EmpiricalDispersion=GD3 SP
 
 SP_-2

1 1
    C    2.4927    1.3531    -0.034
    C    3.7015    0.6807    -0.006
    C    3.6839    -0.6990999999999999    0.0
    C    2.4632    -1.4109    0.04
    C    -2.4632    -1.3869    0.04
    C    -3.6839    -0.7111    0.0
    C    -3.7015    0.6807    -0.006
    C    -2.4927    1.3851    -0.034
    C    0.0    1.4621    -0.066
    C    0.0    -1.4205    0.054000000000000006
    C    1.2621    0.6777    -0.016
    C    1.2375    -0.7281    0.026000000000000002
    C    -1.2621    0.6937    -0.016
    C    -1.2375    -0.7161    0.026000000000000002
    H    2.4881    2.4243    -0.036
    H    4.6368    1.2024    0.024
    H    4.6093    -1.2757    -0.028000000000000004
    H    2.4675    -2.5174    0.041999999999999996
    H    0.0    -2.5016    0.05600000000000001
    H    -2.4675    -2.4454    0.041999999999999996
    H    -4.6093    -1.2517    -0.028000000000000004
    H    -4.6368    1.2384    0.024
    H    -2.4881    2.4803    -0.036
    H    0.004    2.1545    -0.9196
    H    -0.004    2.1545    0.7996000000000001

