%NProcShared=16
%mem = 64GB
#n M062X/6-311++G(d,p) TD(NStates=1) EmpiricalDispersion=GD3 SP
 
 SP_1

1 1
    C    2.4927    1.3901    -0.003
    C    3.7015    0.7067    0.001
    C    3.6839    -0.6790999999999999    0.001
    C    2.4632    -1.3779000000000001    0.004
    C    -2.4632    -1.4199    0.004
    C    -3.6839    -0.7311    0.001
    C    -3.7015    0.6547    0.001
    C    -2.4927    1.3481    -0.003
    C    0.0    1.4621    -0.008
    C    0.0    -1.4205    0.007000000000000001
    C    1.2621    0.6987    -0.001
    C    1.2375    -0.7091    -0.001
    C    -1.2621    0.6727    -0.001
    C    -1.2375    -0.7351    -0.001
    H    2.4881    2.4743    -0.003
    H    4.6368    1.2444    0.005
    H    4.6093    -1.2397    -0.003
    H    2.4675    -2.4574    0.004
    H    0.0    -2.5016    0.007000000000000001
    H    -2.4675    -2.5054    0.004
    H    -4.6093    -1.2877    -0.003
    H    -4.6368    1.1964    0.005
    H    -2.4881    2.4303000000000003    -0.003
    H    0.001    2.1545    -0.8666
    H    -0.001    2.1545    0.8526

