%NProcShared=16
%mem = 64GB
#n M062X/6-311++G(d,p) TD(NStates=1) EmpiricalDispersion=GD3 SP
 
 SP_-3

1 1
    C    2.4927    1.3061    0.009
    C    3.7015    0.6027    -0.003
    C    3.6839    -0.7830999999999999    -0.003
    C    2.4632    -1.4619    -0.012
    C    -2.4632    -1.3359    -0.012
    C    -3.6839    -0.6271    -0.003
    C    -3.7015    0.7586999999999999    -0.003
    C    -2.4927    1.4321    0.009
    C    0.0    1.4621    0.024
    C    0.0    -1.4205    -0.021
    C    1.2621    0.6466999999999999    0.003
    C    1.2375    -0.7611    0.003
    C    -1.2621    0.7247    0.003
    C    -1.2375    -0.6830999999999999    0.003
    H    2.4881    2.3863000000000003    0.009
    H    4.6368    1.1483999999999999    -0.015000000000000003
    H    4.6093    -1.3357    0.009
    H    2.4675    -2.5534    -0.012
    H    0.0    -2.5016    -0.021
    H    -2.4675    -2.4093999999999998    -0.012
    H    -4.6093    -1.1917    0.009
    H    -4.6368    1.2924    -0.015000000000000003
    H    -2.4881    2.5183    0.009
    H    -0.003    2.1545    -0.8386
    H    0.003    2.1545    0.8806

