%NProcShared=16
%mem = 64GB
#n M062X/6-311++G(d,p) TD(NStates=1) EmpiricalDispersion=GD3 SP
 
 SP_-2

1 1
    C    2.4927    1.3271    0.006
    C    3.7015    0.6286999999999999    -0.002
    C    3.6839    -0.7571    -0.002
    C    2.4632    -1.4409    -0.008
    C    -2.4632    -1.3569    -0.008
    C    -3.6839    -0.6530999999999999    -0.002
    C    -3.7015    0.7327    -0.002
    C    -2.4927    1.4111    0.006
    C    0.0    1.4621    0.016
    C    0.0    -1.4205    -0.014000000000000002
    C    1.2621    0.6597    0.002
    C    1.2375    -0.7481    0.002
    C    -1.2621    0.7117    0.002
    C    -1.2375    -0.6960999999999999    0.002
    H    2.4881    2.4083    0.006
    H    4.6368    1.1723999999999999    -0.01
    H    4.6093    -1.3117    0.006
    H    2.4675    -2.5294    -0.008
    H    0.0    -2.5016    -0.014000000000000002
    H    -2.4675    -2.4334    -0.008
    H    -4.6093    -1.2157    0.006
    H    -4.6368    1.2684    -0.01
    H    -2.4881    2.4963    0.006
    H    -0.002    2.1545    -0.8456
    H    0.002    2.1545    0.8736

