%NProcShared=48
%mem = 190GB
#n M062X/6-311++G(d,p) TD(NStates=1) EmpiricalDispersion=GD3 SP
 
 SP_-2

1 1
    C    0.0    2.596655    1.318431
    C    -0.0    3.7515080000000003    0.5119889999999999
    C    -0.0    3.649861    -0.87183
    C    0.0    2.367156    -1.445538
    C    0.0    -2.319156    -1.409538
    C    0.0    -3.617861    -0.89583
    C    0.0    -3.771508    0.4919889999999999
    C    0.0    -2.6486549999999998    1.362431
    C    -0.0    0.008    1.6033689999999998
    C    0.0    -0.012    -1.2791890000000001
    C    0.0    1.280055    0.765065
    C    0.0    1.225471    -0.638804
    C    -0.0    -1.304055    0.8490650000000001
    C    -0.0    -1.209471    -0.562804
    H    0.0    2.7240710000000004    2.401647
    H    0.0    4.722753    0.985689
    H    -0.0    4.537262    -1.502349
    H    0.0    2.24955    -2.528059
    H    0.0    -0.062    -2.350266
    H    0.0    -2.14555    -2.4920590000000002
    H    0.0    -4.481262000000001    -1.562349
    H    0.0    -4.770753    0.917689
    H    0.0    -2.832071    2.4456469999999997
    H    -0.859585    0.048    2.295787
    H    0.859585    0.048    2.295787

