%NProcShared=48
%mem = 190GB
#n M062X/6-311++G(d,p) TD(NStates=1) EmpiricalDispersion=GD3 SP
 
 SP_6

1 1
    C    -0.0    2.440655    1.446431
    C    0.0    3.6715079999999998    0.811989
    C    0.0    3.6858609999999996    -0.57983
    C    -0.0    2.511156    -1.333538
    C    0.0    -2.6551560000000003    -1.441538
    C    0.0    -3.7818609999999997    -0.5078299999999999
    C    0.0    -3.611508    0.871989
    C    0.0    -2.2846550000000003    1.314431
    C    0.0    -0.024    1.303369
    C    0.0    0.036    -1.579189
    C    0.0    1.268055    0.673065
    C    0.0    1.233471    -0.746804
    C    0.0    -1.1960549999999999    0.421065
    C    0.0    -1.281471    -0.974804
    H    -0.0    2.360071    2.5296469999999998
    H    0.0    4.598752999999999    1.369689
    H    0.0    4.625262    -1.102349
    H    -0.0    2.58155    -2.416059
    H    0.0    0.186    -2.6702660000000003
    H    0.0    -2.8935500000000003    -2.524059
    H    0.0    -4.7932619999999995    -0.9223489999999999
    H    0.0    -4.454752999999999    1.5736890000000001
    H    0.0    -2.036071    2.397647
    H    -0.859585    -0.144    1.995787
    H    0.859585    -0.144    1.995787

