%NProcShared=48
%mem = 190GB
#n M062X/6-311++G(d,p) TD(NStates=1) EmpiricalDispersion=GD3 SP
 
 SP_-8

1 1
    C    0.0    2.362655    1.2764309999999999
    C    0.0    3.649508    0.745989
    C    0.0    3.7578609999999997    -0.6318299999999999
    C    0.0    2.5831560000000002    -1.475538
    C    0.0    -2.391156    -1.3315379999999999
    C    -0.0    -3.6298609999999996    -0.72783
    C    -0.0    -3.729508    0.6659889999999999
    C    0.0    -2.5706550000000004    1.452431
    C    0.0    0.032    1.4233689999999999
    C    0.0    -0.048    -1.459189
    C    -0.0    1.2080549999999999    0.4830650000000001
    C    -0.0    1.273471    -0.9088040000000001
    C    0.0    -1.304055    0.8190649999999999
    C    0.0    -1.209471    -0.604804
    H    0.0    2.214071    2.359647
    H    0.0    4.518752999999999    1.399689
    H    0.0    4.741262    -1.100349
    H    0.0    2.72955    -2.558059
    H    0.0    -0.248    -2.542266
    H    0.0    -2.3135499999999998    -2.414059
    H    -0.0    -4.517262    -1.3403489999999998
    H    -0.0    -4.7107529999999995    1.1276890000000002
    H    0.0    -2.6460710000000005    2.535647
    H    -0.859585    0.192    2.115787
    H    0.859585    0.192    2.115787

