%NProcShared=48
%mem = 190GB
#n M062X/6-311++G(d,p) TD(NStates=1) EmpiricalDispersion=GD3 SP
 
 SP_4

1 1
    C    0.0    2.674655    1.384431
    C    0.0    3.781508    0.4819889999999999
    C    0.0    3.601861    -0.90783
    C    0.0    2.295156    -1.391538
    C    -0.0    -2.391156    -1.463538
    C    0.0    -3.665861    -0.85983
    C    0.0    -3.741508    0.5219889999999999
    C    -0.0    -2.570655    1.296431
    C    0.0    -0.016    1.6033689999999998
    C    0.0    0.024    -1.2791890000000001
    C    0.0    1.316055    0.891065
    C    0.0    1.201471    -0.524804
    C    0.0    -1.268055    0.7230650000000001
    C    0.0    -1.233471    -0.676804
    H    0.0    2.8860710000000003    2.467647
    H    -0.0    4.794753    0.883689
    H    0.0    4.4532620000000005    -1.592349
    H    0.0    2.09355    -2.474059
    H    0.0    0.124    -2.350266
    H    -0.0    -2.30155    -2.546059
    H    0.0    -4.565262000000001    -1.472349
    H    0.0    -4.698753    1.019689
    H    -0.0    -2.670071    2.379647
    H    -0.859585    -0.096    2.295787
    H    0.859585    -0.096    2.295787

