%NProcShared=48
%mem = 190GB
#n M062X/6-311++G(d,p) TD(NStates=1) EmpiricalDispersion=GD3 SP
 
 SP_10

1 1
    C    0.0    2.700655    1.458431
    C    0.0    3.787508    0.5199889999999999
    C    0.0    3.573861    -0.87583
    C    0.0    2.271156    -1.3295379999999999
    C    -0.0    -2.511156    -1.509538
    C    0.0    -3.733861    -0.7558299999999999
    C    0.0    -3.6875080000000002    0.619989
    C    -0.0    -2.440655    1.2384309999999998
    C    0.0    -0.04    1.543369
    C    0.0    0.06    -1.339189
    C    0.0    1.340055    0.965065
    C    0.0    1.185471    -0.46280400000000005
    C    0.0    -1.220055    0.545065
    C    0.0    -1.265471    -0.842804
    H    0.0    2.932071    2.5416469999999998
    H    -0.0    4.822753    0.8856890000000001
    H    0.0    4.409262000000001    -1.5783489999999998
    H    0.0    2.0455500000000004    -2.412059
    H    0.0    0.31    -2.414266
    H    -0.0    -2.56555    -2.592059
    H    0.0    -4.689262    -1.278349
    H    0.0    -4.582752999999999    1.225689
    H    -0.0    -2.392071    2.321647
    H    -0.859585    -0.24    2.2357869999999997
    H    0.859585    -0.24    2.2357869999999997

