%NProcShared=48
%mem = 190GB
#n M062X/6-311++G(d,p) TD(NStates=1) EmpiricalDispersion=GD3 SP
 
 SP_6

1 1
    C    -0.0    2.518655    1.434431
    C    0.0    3.707508    0.709989
    C    0.0    3.655861    -0.6818299999999999
    C    -0.0    2.439156    -1.345538
    C    0.0    -2.5831560000000002    -1.453538
    C    0.0    -3.751861    -0.6098299999999999
    C    0.0    -3.647508    0.769989
    C    0.0    -2.362655    1.302431
    C    0.0    -0.024    1.3933689999999999
    C    0.0    0.036    -1.489189
    C    0.0    1.286055    0.751065
    C    0.0    1.221471    -0.6688040000000001
    C    0.0    -1.2140549999999999    0.49906500000000004
    C    0.0    -1.269471    -0.896804
    H    -0.0    2.534071    2.5176469999999997
    H    0.0    4.664753    1.213689
    H    0.0    4.565262000000001    -1.258349
    H    -0.0    2.41955    -2.428059
    H    0.0    0.186    -2.574266
    H    0.0    -2.7315500000000004    -2.536059
    H    0.0    -4.733262    -1.0783489999999998
    H    0.0    -4.520753    1.4176890000000002
    H    0.0    -2.210071    2.385647
    H    -0.859585    -0.144    2.085787
    H    0.859585    -0.144    2.085787

