%NProcShared=48
%mem = 190GB
#n M062X/6-311++G(d,p) TD(NStates=1) EmpiricalDispersion=GD3 SP
 
 SP_-4

1 1
    C    0.0    2.518655    1.304431
    C    -0.0    3.717508    0.589989
    C    -0.0    3.685861    -0.7918299999999999
    C    0.0    2.439156    -1.455538
    C    0.0    -2.343156    -1.383538
    C    0.0    -3.621861    -0.83983
    C    0.0    -3.757508    0.549989
    C    0.0    -2.622655    1.392431
    C    -0.0    0.016    1.543369
    C    0.0    -0.024    -1.339189
    C    0.0    1.256055    0.671065
    C    0.0    1.241471    -0.728804
    C    -0.0    -1.304055    0.839065
    C    -0.0    -1.209471    -0.5768040000000001
    H    0.0    2.554071    2.387647
    H    0.0    4.6547529999999995    1.1236890000000002
    H    -0.0    4.605262000000001    -1.3683489999999998
    H    0.0    2.4095500000000003    -2.538059
    H    0.0    -0.124    -2.414266
    H    0.0    -2.20155    -2.466059
    H    0.0    -4.4932620000000005    -1.488349
    H    0.0    -4.750753    0.9876889999999999
    H    0.0    -2.770071    2.475647
    H    -0.859585    0.096    2.2357869999999997
    H    0.859585    0.096    2.2357869999999997

