%NProcShared=48
%mem = 190GB
#n M062X/6-311++G(d,p) TD(NStates=1) EmpiricalDispersion=GD3 SP
 
 SP_8

1 1
    C    -0.0    2.5186550000000003    1.460431
    C    0.0    3.705508    0.7339889999999999
    C    0.0    3.6498609999999996    -0.65983
    C    -0.0    2.439156    -1.3235379999999999
    C    0.0    -2.6311560000000003    -1.467538
    C    0.0    -3.7778609999999997    -0.5638299999999999
    C    0.0    -3.625508    0.813989
    C    0.0    -2.310655    1.2844309999999999
    C    0.0    -0.032    1.3633689999999998
    C    0.0    0.048    -1.5191890000000001
    C    0.0    1.292055    0.767065
    C    0.0    1.217471    -0.6568039999999999
    C    0.0    -1.1960549999999999    0.4310650000000001
    C    0.0    -1.281471    -0.960804
    H    -0.0    2.5300710000000004    2.543647
    H    0.0    4.666753    1.231689
    H    0.0    4.557262    -1.236349
    H    -0.0    2.42155    -2.406059
    H    0.0    0.248    -2.606266
    H    0.0    -2.8375500000000002    -2.550059
    H    0.0    -4.781262    -0.996349
    H    0.0    -4.474753    1.5036889999999998
    H    0.0    -2.098071    2.367647
    H    -0.859585    -0.192    2.055787
    H    0.859585    -0.192    2.055787

