%NProcShared=48
%mem = 190GB
#n M062X/6-311++G(d,p) TD(NStates=1) EmpiricalDispersion=GD3 SP
 
 SP_6

1 1
    C    0.0    2.5966549999999997    1.422431
    C    0.0    3.743508    0.6079889999999999
    C    0.0    3.625861    -0.78383
    C    0.0    2.367156    -1.357538
    C    -0.0    -2.511156    -1.465538
    C    0.0    -3.721861    -0.71183
    C    0.0    -3.6835080000000002    0.6679889999999999
    C    -0.0    -2.440655    1.2904309999999999
    C    0.0    -0.024    1.483369
    C    0.0    0.036    -1.399189
    C    0.0    1.304055    0.829065
    C    0.0    1.209471    -0.590804
    C    0.0    -1.232055    0.577065
    C    0.0    -1.257471    -0.818804
    H    0.0    2.708071    2.5056469999999997
    H    -0.0    4.730753    1.0576889999999999
    H    0.0    4.505262000000001    -1.414349
    H    0.0    2.25755    -2.440059
    H    0.0    0.186    -2.478266
    H    -0.0    -2.5695500000000004    -2.548059
    H    0.0    -4.673262    -1.234349
    H    0.0    -4.586753    1.261689
    H    -0.0    -2.384071    2.373647
    H    -0.859585    -0.144    2.1757869999999997
    H    0.859585    -0.144    2.1757869999999997

