%NProcShared=48
%mem = 190GB
#n M062X/6-311++G(d,p) TD(NStates=1) EmpiricalDispersion=GD3 SP
 
 SP_-2

1 1
    C    0.0    2.492655    1.334431
    C    -0.0    3.7035080000000002    0.6479889999999999
    C    -0.0    3.689861    -0.73583
    C    0.0    2.463156    -1.429538
    C    0.0    -2.415156    -1.393538
    C    0.0    -3.657861    -0.75983
    C    0.0    -3.723508    0.6279889999999999
    C    0.0    -2.5446549999999997    1.378431
    C    -0.0    0.008    1.483369
    C    0.0    -0.012    -1.399189
    C    0.0    1.256055    0.661065
    C    0.0    1.241471    -0.742804
    C    -0.0    -1.280055    0.7450650000000001
    C    -0.0    -1.225471    -0.666804
    H    0.0    2.492071    2.417647
    H    0.0    4.634753    1.193689
    H    -0.0    4.617262    -1.294349
    H    0.0    2.4655500000000004    -2.512059
    H    0.0    -0.062    -2.478266
    H    0.0    -2.3615500000000003    -2.4760590000000002
    H    0.0    -4.561262000000001    -1.354349
    H    0.0    -4.682753    1.125689
    H    0.0    -2.600071    2.4616469999999997
    H    -0.859585    0.048    2.1757869999999997
    H    0.859585    0.048    2.1757869999999997

