%NProcShared=48
%mem = 190GB
#n M062X/6-311++G(d,p) TD(NStates=1) EmpiricalDispersion=GD3 SP
 
 SP_-6

1 1
    C    0.0    2.414655    1.2944309999999999
    C    0.0    3.671508    0.701989
    C    0.0    3.731861    -0.6778299999999999
    C    0.0    2.535156    -1.461538
    C    0.0    -2.391156    -1.353538
    C    -0.0    -3.635861    -0.74983
    C    -0.0    -3.731508    0.6419889999999999
    C    0.0    -2.570655    1.426431
    C    0.0    0.024    1.453369
    C    0.0    -0.036    -1.429189
    C    -0.0    1.226055    0.551065
    C    -0.0    1.261471    -0.844804
    C    0.0    -1.298055    0.803065
    C    0.0    -1.213471    -0.616804
    H    0.0    2.326071    2.377647
    H    0.0    4.564753    1.313689
    H    0.0    4.693262    -1.1823489999999999
    H    0.0    2.6235500000000003    -2.544059
    H    0.0    -0.186    -2.510266
    H    0.0    -2.31155    -2.436059
    H    -0.0    -4.525262000000001    -1.362349
    H    -0.0    -4.708753    1.109689
    H    0.0    -2.650071    2.5096469999999997
    H    -0.859585    0.144    2.145787
    H    0.859585    0.144    2.145787

