%NProcShared=48
%mem = 190GB
#n M062X/6-311++G(d,p) TD(NStates=1) EmpiricalDispersion=GD3 SP
 
 SP_-8

1 1
    C    0.0    2.492655    1.2564309999999999
    C    -0.0    3.709508    0.575989
    C    -0.0    3.707861    -0.8018299999999999
    C    0.0    2.463156    -1.495538
    C    0.0    -2.271156    -1.351538
    C    0.0    -3.5798609999999997    -0.89783
    C    0.0    -3.789508    0.4959889999999999
    C    0.0    -2.7006550000000002    1.432431
    C    -0.0    0.032    1.573369
    C    0.0    -0.048    -1.309189
    C    0.0    1.238055    0.6130650000000001
    C    0.0    1.253471    -0.778804
    C    -0.0    -1.334055    0.9490649999999999
    C    -0.0    -1.189471    -0.474804
    H    0.0    2.5040709999999997    2.339647
    H    0.0    4.628753    1.139689
    H    -0.0    4.641262    -1.360349
    H    0.0    2.45955    -2.578059
    H    0.0    -0.248    -2.382266
    H    0.0    -2.0435499999999998    -2.434059
    H    0.0    -4.417262    -1.6003489999999998
    H    0.0    -4.820753    0.8676890000000002
    H    0.0    -2.936071    2.515647
    H    -0.859585    0.192    2.265787
    H    0.859585    0.192    2.265787

