%NProcShared=48
%mem = 190GB
#n M062X/6-311++G(d,p) TD(NStates=1) EmpiricalDispersion=GD3 SP
 
 SP_-4

1 1
    C    0.0    2.336655    1.332431
    C    0.0    3.633508    0.827989
    C    0.0    3.755861    -0.5538299999999999
    C    0.0    2.6071560000000003    -1.427538
    C    0.0    -2.511156    -1.355538
    C    -0.0    -3.691861    -0.60183
    C    -0.0    -3.673508    0.7879889999999999
    C    0.0    -2.440655    1.420431
    C    0.0    0.016    1.3333689999999998
    C    0.0    -0.024    -1.5491890000000001
    C    -0.0    1.2140549999999999    0.4890650000000001
    C    -0.0    1.269471    -0.910804
    C    0.0    -1.262055    0.657065
    C    0.0    -1.237471    -0.758804
    H    0.0    2.148071    2.415647
    H    0.0    4.500753    1.487689
    H    0.0    4.745262    -1.004349
    H    0.0    2.7875500000000004    -2.510059
    H    0.0    -0.124    -2.6382660000000002
    H    0.0    -2.5795500000000002    -2.438059
    H    -0.0    -4.633262    -1.124349
    H    -0.0    -4.596753    1.351689
    H    0.0    -2.364071    2.503647
    H    -0.859585    0.096    2.025787
    H    0.859585    0.096    2.025787

