%NProcShared=48
%mem = 190GB
#n M062X/6-311++G(d,p) TD(NStates=1) EmpiricalDispersion=GD3 SP
 
 SP_0

1 1
    C    0.0    2.622655    1.340431
    C    0.0    3.761508    0.5019889999999999
    C    0.0    3.633861    -0.88383
    C    0.0    2.343156    -1.427538
    C    -0.0    -2.343156    -1.427538
    C    0.0    -3.633861    -0.88383
    C    0.0    -3.761508    0.5019889999999999
    C    -0.0    -2.622655    1.340431
    C    0.0    0.0    1.6033689999999998
    C    0.0    0.0    -1.2791890000000001
    C    0.0    1.292055    0.807065
    C    0.0    1.217471    -0.600804
    C    0.0    -1.292055    0.807065
    C    0.0    -1.217471    -0.600804
    H    0.0    2.778071    2.423647
    H    -0.0    4.746753    0.951689
    H    0.0    4.5092620000000005    -1.532349
    H    0.0    2.19755    -2.510059
    H    0.0    0.0    -2.350266
    H    -0.0    -2.19755    -2.510059
    H    0.0    -4.5092620000000005    -1.532349
    H    0.0    -4.746753    0.951689
    H    -0.0    -2.778071    2.423647
    H    -0.859585    0.0    2.295787
    H    0.859585    -0.0    2.295787

