%NProcShared=48
%mem = 190GB
#n M062X/6-311++G(d,p) TD(NStates=1) EmpiricalDispersion=GD3 SP
 
 SP_-10

1 1
    C    0.0    2.4666550000000003    1.2344309999999998
    C    -0.0    3.6995080000000002    0.585989
    C    -0.0    3.723861    -0.7898299999999999
    C    0.0    2.487156    -1.513538
    C    0.0    -2.247156    -1.333538
    C    0.0    -3.5638609999999997    -0.90983
    C    0.0    -3.799508    0.4859889999999999
    C    0.0    -2.726655    1.454431
    C    -0.0    0.04    1.573369
    C    0.0    -0.06    -1.309189
    C    0.0    1.226055    0.571065
    C    0.0    1.261471    -0.816804
    C    -0.0    -1.346055    0.991065
    C    -0.0    -1.181471    -0.4368040000000001
    H    0.0    2.4500710000000003    2.317647
    H    0.0    4.604753    1.173689
    H    -0.0    4.669262    -1.330349
    H    0.0    2.5115499999999997    -2.596059
    H    0.0    -0.31    -2.382266
    H    0.0    -1.9915500000000004    -2.416059
    H    0.0    -4.389262    -1.6303489999999998
    H    0.0    -4.844753    0.8336890000000001
    H    0.0    -2.9900710000000004    2.5376469999999998
    H    -0.859585    0.24    2.265787
    H    0.859585    0.24    2.265787

