%NProcShared=48
%mem = 190GB
#n M062X/6-311++G(d,p) TD(NStates=1) EmpiricalDispersion=GD3 SP
 
 SP_-8

1 1
    C    0.0    2.388655    1.2724309999999999
    C    0.0    3.661508    0.711989
    C    0.0    3.747861    -0.6658299999999999
    C    0.0    2.559156    -1.479538
    C    0.0    -2.367156    -1.335538
    C    -0.0    -3.6198609999999998    -0.76183
    C    -0.0    -3.741508    0.6319889999999999
    C    0.0    -2.596655    1.448431
    C    0.0    0.032    1.453369
    C    0.0    -0.048    -1.429189
    C    -0.0    1.2140549999999999    0.5090650000000001
    C    -0.0    1.269471    -0.882804
    C    0.0    -1.310055    0.845065
    C    0.0    -1.205471    -0.578804
    H    0.0    2.272071    2.355647
    H    0.0    4.540753    1.347689
    H    0.0    4.721262    -1.152349
    H    0.0    2.6755500000000003    -2.562059
    H    0.0    -0.248    -2.510266
    H    0.0    -2.25955    -2.418059
    H    -0.0    -4.497262    -1.3923489999999998
    H    -0.0    -4.732753    1.0756890000000001
    H    0.0    -2.7040710000000003    2.531647
    H    -0.859585    0.192    2.145787
    H    0.859585    0.192    2.145787

