%NProcShared=48
%mem = 190GB
#n M062X/6-311++G(d,p) TD(NStates=1) EmpiricalDispersion=GD3 SP
 
 SP_2

1 1
    C    0.0    2.622655    1.366431
    C    0.0    3.759508    0.5259889999999999
    C    0.0    3.627861    -0.86183
    C    0.0    2.343156    -1.405538
    C    -0.0    -2.391156    -1.441538
    C    0.0    -3.659861    -0.83783
    C    0.0    -3.7395080000000003    0.545989
    C    -0.0    -2.5706550000000004    1.322431
    C    0.0    -0.008    1.573369
    C    0.0    0.012    -1.309189
    C    0.0    1.298055    0.823065
    C    0.0    1.213471    -0.588804
    C    0.0    -1.274055    0.739065
    C    0.0    -1.229471    -0.6648040000000001
    H    0.0    2.774071    2.4496469999999997
    H    -0.0    4.748753    0.969689
    H    0.0    4.5012620000000005    -1.510349
    H    0.0    2.19955    -2.4880590000000002
    H    0.0    0.062    -2.382266
    H    -0.0    -2.30355    -2.524059
    H    0.0    -4.557262    -1.4503489999999999
    H    0.0    -4.700753    1.037689
    H    -0.0    -2.6660710000000005    2.405647
    H    -0.859585    -0.048    2.265787
    H    0.859585    -0.048    2.265787

