%NProcShared=48
%mem = 190GB
#n M062X/6-311++G(d,p) TD(NStates=1) EmpiricalDispersion=GD3 SP
 
 SP_4

1 1
    C    0.0    2.570655    1.400431
    C    0.0    3.733508    0.6179889999999999
    C    0.0    3.641861    -0.77183
    C    0.0    2.391156    -1.375538
    C    -0.0    -2.487156    -1.447538
    C    0.0    -3.705861    -0.72383
    C    0.0    -3.693508    0.6579889999999999
    C    -0.0    -2.466655    1.312431
    C    0.0    -0.016    1.483369
    C    0.0    0.024    -1.399189
    C    0.0    1.292055    0.787065
    C    0.0    1.217471    -0.628804
    C    0.0    -1.244055    0.6190650000000001
    C    0.0    -1.249471    -0.7808039999999999
    H    0.0    2.654071    2.483647
    H    -0.0    4.706753    1.091689
    H    0.0    4.533262000000001    -1.384349
    H    0.0    2.30955    -2.458059
    H    0.0    0.124    -2.478266
    H    -0.0    -2.5175500000000004    -2.530059
    H    0.0    -4.645262000000001    -1.264349
    H    0.0    -4.610753    1.227689
    H    -0.0    -2.438071    2.395647
    H    -0.859585    -0.096    2.1757869999999997
    H    0.859585    -0.096    2.1757869999999997

