%NProcShared=48
%mem = 190GB
#n M062X/6-311++G(d,p) TD(NStates=1) EmpiricalDispersion=GD3 SP
 
 SP_-4

1 1
    C    0.0    2.388655    1.324431
    C    0.0    3.657508    0.759989
    C    0.0    3.735861    -0.6218299999999999
    C    0.0    2.559156    -1.435538
    C    0.0    -2.463156    -1.363538
    C    -0.0    -3.671861    -0.6698299999999999
    C    -0.0    -3.697508    0.719989
    C    0.0    -2.492655    1.412431
    C    0.0    0.016    1.3933689999999999
    C    0.0    -0.024    -1.489189
    C    -0.0    1.226055    0.541065
    C    -0.0    1.261471    -0.858804
    C    0.0    -1.274055    0.709065
    C    0.0    -1.229471    -0.7068040000000001
    H    0.0    2.264071    2.407647
    H    0.0    4.544753    1.3836890000000002
    H    0.0    4.705262    -1.1083489999999998
    H    0.0    2.6795500000000003    -2.518059
    H    0.0    -0.124    -2.574266
    H    0.0    -2.47155    -2.446059
    H    -0.0    -4.593262    -1.228349
    H    -0.0    -4.640753    1.247689
    H    0.0    -2.480071    2.495647
    H    -0.859585    0.096    2.085787
    H    0.859585    0.096    2.085787

