%NProcShared=48
%mem = 190GB
#n M062X/6-311++G(d,p) TD(NStates=1) EmpiricalDispersion=GD3 SP
 
 SP_10

1 1
    C    0.0    2.674655    1.462431
    C    0.0    3.775508    0.5539889999999998
    C    0.0    3.5838609999999997    -0.8418300000000001
    C    0.0    2.295156    -1.3255379999999999
    C    -0.0    -2.535156    -1.505538
    C    0.0    -3.743861    -0.72183
    C    0.0    -3.675508    0.6539889999999999
    C    -0.0    -2.414655    1.2424309999999998
    C    0.0    -0.04    1.513369
    C    0.0    0.06    -1.369189
    C    0.0    1.334055    0.939065
    C    0.0    1.189471    -0.48880400000000007
    C    0.0    -1.2140549999999999    0.519065
    C    0.0    -1.269471    -0.8688039999999999
    H    0.0    2.8740710000000003    2.5456469999999998
    H    -0.0    4.800752999999999    0.9376890000000001
    H    0.0    4.4292620000000005    -1.526349
    H    0.0    2.0995500000000002    -2.408059
    H    0.0    0.31    -2.446266
    H    -0.0    -2.61955    -2.588059
    H    0.0    -4.709262    -1.2263490000000001
    H    0.0    -4.560752999999999    1.2776889999999999
    H    -0.0    -2.3340710000000002    2.325647
    H    -0.859585    -0.24    2.205787
    H    0.859585    -0.24    2.205787

