%NProcShared=48
%mem = 190GB
#n M062X/6-311++G(d,p) TD(NStates=1) EmpiricalDispersion=GD3 SP
 
 SP_-10

1 1
    C    0.0    2.492655    1.2304309999999998
    C    -0.0    3.7115080000000003    0.551989
    C    -0.0    3.713861    -0.82383
    C    0.0    2.463156    -1.517538
    C    0.0    -2.223156    -1.337538
    C    0.0    -3.553861    -0.9438300000000001
    C    0.0    -3.811508    0.45198899999999986
    C    0.0    -2.752655    1.450431
    C    -0.0    0.04    1.6033689999999998
    C    0.0    -0.06    -1.2791890000000001
    C    0.0    1.232055    0.597065
    C    0.0    1.257471    -0.790804
    C    -0.0    -1.352055    1.017065
    C    -0.0    -1.177471    -0.41080400000000006
    H    0.0    2.508071    2.313647
    H    0.0    4.626753    1.121689
    H    -0.0    4.649262    -1.382349
    H    0.0    2.45755    -2.600059
    H    0.0    -0.31    -2.350266
    H    0.0    -1.9375500000000003    -2.420059
    H    0.0    -4.369262000000001    -1.6823489999999999
    H    0.0    -4.866753    0.7816890000000001
    H    0.0    -3.048071    2.5336469999999998
    H    -0.859585    0.24    2.295787
    H    0.859585    0.24    2.295787

