%NProcShared=48
%mem = 190GB
#n M062X/6-311++G(d,p) TD(NStates=1) EmpiricalDispersion=GD3 SP
 
 SP_-8

1 1
    C    0.0    2.284655    1.2884309999999999
    C    0.0    3.613508    0.847989
    C    0.0    3.787861    -0.5298299999999999
    C    0.0    2.6551560000000003    -1.463538
    C    0.0    -2.463156    -1.3195379999999999
    C    -0.0    -3.659861    -0.62583
    C    -0.0    -3.693508    0.7679889999999999
    C    0.0    -2.492655    1.464431
    C    0.0    0.032    1.3333689999999998
    C    0.0    -0.048    -1.5491890000000001
    C    -0.0    1.1900549999999999    0.4050650000000001
    C    -0.0    1.285471    -0.986804
    C    0.0    -1.286055    0.741065
    C    0.0    -1.221471    -0.682804
    H    0.0    2.040071    2.371647
    H    0.0    4.4527529999999995    1.5556889999999999
    H    0.0    4.801262    -0.9443490000000001
    H    0.0    2.8915500000000005    -2.546059
    H    0.0    -0.248    -2.6382660000000002
    H    0.0    -2.47555    -2.402059
    H    -0.0    -4.577262    -1.1843489999999999
    H    -0.0    -4.644753    1.283689
    H    0.0    -2.4720710000000006    2.547647
    H    -0.859585    0.192    2.025787
    H    0.859585    0.192    2.025787

