%NProcShared=48
%mem = 190GB
#n M062X/6-311++G(d,p) TD(NStates=1) EmpiricalDispersion=GD3 SP
 
 SP_6

1 1
    C    0.0    2.700655    1.406431
    C    0.0    3.791508    0.4719889999999999
    C    0.0    3.585861    -0.91983
    C    0.0    2.271156    -1.373538
    C    -0.0    -2.415156    -1.481538
    C    0.0    -3.681861    -0.84783
    C    0.0    -3.7315080000000003    0.5319889999999999
    C    -0.0    -2.544655    1.2744309999999999
    C    0.0    -0.024    1.6033689999999998
    C    0.0    0.036    -1.2791890000000001
    C    0.0    1.328055    0.933065
    C    0.0    1.193471    -0.486804
    C    0.0    -1.256055    0.681065
    C    0.0    -1.241471    -0.714804
    H    0.0    2.940071    2.4896469999999997
    H    -0.0    4.818753    0.8496889999999999
    H    0.0    4.425262000000001    -1.622349
    H    0.0    2.04155    -2.456059
    H    0.0    0.186    -2.350266
    H    -0.0    -2.3535500000000003    -2.564059
    H    0.0    -4.593262    -1.4423489999999999
    H    0.0    -4.674753    1.053689
    H    -0.0    -2.6160710000000003    2.357647
    H    -0.859585    -0.144    2.295787
    H    0.859585    -0.144    2.295787

