%NProcShared=48
%mem = 190GB
#n M062X/6-311++G(d,p) TD(NStates=1) EmpiricalDispersion=GD3 SP
 
 SP_6

1 1
    C    0.0    2.622655    1.418431
    C    0.0    3.755508    0.5739889999999999
    C    0.0    3.6158609999999998    -0.8178300000000001
    C    0.0    2.343156    -1.361538
    C    -0.0    -2.487156    -1.469538
    C    0.0    -3.711861    -0.74583
    C    0.0    -3.6955080000000002    0.6339889999999999
    C    -0.0    -2.4666550000000003    1.2864309999999999
    C    0.0    -0.024    1.513369
    C    0.0    0.036    -1.369189
    C    0.0    1.310055    0.8550650000000001
    C    0.0    1.205471    -0.564804
    C    0.0    -1.238055    0.6030650000000001
    C    0.0    -1.253471    -0.792804
    H    0.0    2.766071    2.5016469999999997
    H    -0.0    4.752752999999999    1.0056889999999998
    H    0.0    4.4852620000000005    -1.4663490000000001
    H    0.0    2.20355    -2.444059
    H    0.0    0.186    -2.446266
    H    -0.0    -2.51555    -2.552059
    H    0.0    -4.653262    -1.286349
    H    0.0    -4.608752999999999    1.209689
    H    -0.0    -2.4420710000000003    2.369647
    H    -0.859585    -0.144    2.205787
    H    0.859585    -0.144    2.205787

