%NProcShared=48
%mem = 190GB
#n M062X/6-311++G(d,p) TD(NStates=1) EmpiricalDispersion=GD3 SP
 
 SP_4

1 1
    C    -0.0    2.4666550000000003    1.416431
    C    0.0    3.685508    0.7539889999999999
    C    0.0    3.6818609999999996    -0.63583
    C    -0.0    2.487156    -1.359538
    C    0.0    -2.5831560000000002    -1.431538
    C    0.0    -3.7458609999999997    -0.58783
    C    0.0    -3.645508    0.793989
    C    0.0    -2.362655    1.328431
    C    0.0    -0.016    1.3633689999999998
    C    0.0    0.024    -1.5191890000000001
    C    0.0    1.268055    0.683065
    C    0.0    1.233471    -0.732804
    C    0.0    -1.220055    0.5150650000000001
    C    0.0    -1.265471    -0.8848039999999999
    H    -0.0    2.4220710000000003    2.499647
    H    0.0    4.618753    1.2996889999999999
    H    0.0    4.613262    -1.176349
    H    -0.0    2.52555    -2.442059
    H    0.0    0.124    -2.606266
    H    0.0    -2.73355    -2.514059
    H    0.0    -4.725262    -1.056349
    H    0.0    -4.522753    1.435689
    H    0.0    -2.206071    2.411647
    H    -0.859585    -0.096    2.055787
    H    0.859585    -0.096    2.055787

