%NProcShared=48
%mem = 190GB
#n M062X/6-311++G(d,p) TD(NStates=1) EmpiricalDispersion=GD3 SP
 
 SP_8

1 1
    C    0.0    2.674655    1.436431
    C    0.0    3.777508    0.5299889999999999
    C    0.0    3.589861    -0.86383
    C    0.0    2.295156    -1.347538
    C    -0.0    -2.487156    -1.491538
    C    0.0    -3.717861    -0.7678299999999999
    C    0.0    -3.697508    0.609989
    C    -0.0    -2.466655    1.2604309999999999
    C    0.0    -0.032    1.543369
    C    0.0    0.048    -1.339189
    C    0.0    1.328055    0.9230649999999999
    C    0.0    1.193471    -0.500804
    C    0.0    -1.232055    0.5870650000000001
    C    0.0    -1.257471    -0.8048040000000001
    H    0.0    2.8780710000000003    2.519647
    H    -0.0    4.798753    0.9196890000000001
    H    0.0    4.4372620000000005    -1.5483489999999998
    H    0.0    2.09755    -2.430059
    H    0.0    0.248    -2.414266
    H    -0.0    -2.5135500000000004    -2.574059
    H    0.0    -4.661262000000001    -1.308349
    H    0.0    -4.606752999999999    1.191689
    H    -0.0    -2.446071    2.343647
    H    -0.859585    -0.192    2.2357869999999997
    H    0.859585    -0.192    2.2357869999999997

