%NProcShared=48
%mem = 190GB
#n M062X/6-311++G(d,p) TD(NStates=1) EmpiricalDispersion=GD3 SP
 
 SP_-10

1 1
    C    0.0    2.2326550000000003    1.2704309999999999
    C    0.0    3.591508    0.891989
    C    0.0    3.8138609999999997    -0.48382999999999987
    C    0.0    2.7031560000000003    -1.477538
    C    0.0    -2.463156    -1.2975379999999999
    C    -0.0    -3.6538609999999996    -0.60383
    C    -0.0    -3.691508    0.7919889999999999
    C    0.0    -2.492655    1.490431
    C    0.0    0.04    1.303369
    C    0.0    -0.06    -1.579189
    C    -0.0    1.1720549999999998    0.337065
    C    -0.0    1.297471    -1.0508039999999998
    C    0.0    -1.292055    0.757065
    C    0.0    -1.217471    -0.6708040000000001
    H    0.0    1.928071    2.353647
    H    0.0    4.406752999999999    1.641689
    H    0.0    4.8492619999999995    -0.862349
    H    0.0    2.99755    -2.560059
    H    0.0    -0.31    -2.6702660000000003
    H    0.0    -2.4775500000000004    -2.380059
    H    -0.0    -4.569262    -1.1623489999999999
    H    -0.0    -4.6467529999999995    1.301689
    H    0.0    -2.468071    2.573647
    H    -0.859585    0.24    1.995787
    H    0.859585    0.24    1.995787

