%NProcShared=48
%mem = 190GB
#n M062X/6-311++G(d,p) TD(NStates=1) EmpiricalDispersion=GD3 SP
 
 SP_-2

1 1
    C    0.0    2.544655    1.326431
    C    -0.0    3.7275080000000003    0.579989
    C    -0.0    3.669861    -0.8038299999999999
    C    0.0    2.415156    -1.437538
    C    0.0    -2.367156    -1.401538
    C    0.0    -3.637861    -0.82783
    C    0.0    -3.747508    0.559989
    C    0.0    -2.5966549999999997    1.370431
    C    -0.0    0.008    1.543369
    C    0.0    -0.012    -1.339189
    C    0.0    1.268055    0.713065
    C    0.0    1.233471    -0.6908040000000001
    C    -0.0    -1.292055    0.797065
    C    -0.0    -1.217471    -0.614804
    H    0.0    2.6080710000000003    2.409647
    H    0.0    4.6787529999999995    1.0896890000000001
    H    -0.0    4.577262    -1.3983489999999998
    H    0.0    2.3575500000000003    -2.520059
    H    0.0    -0.062    -2.414266
    H    0.0    -2.25355    -2.4840590000000002
    H    0.0    -4.521262000000001    -1.458349
    H    0.0    -4.7267529999999995    1.021689
    H    0.0    -2.716071    2.4536469999999997
    H    -0.859585    0.048    2.2357869999999997
    H    0.859585    0.048    2.2357869999999997

