%NProcShared=48
%mem = 190GB
#n M062X/6-311++G(d,p) TD(NStates=1) EmpiricalDispersion=GD3 SP
 
 SP_6

1 1
    C    0.0    2.674655    1.410431
    C    0.0    3.779508    0.5059889999999999
    C    0.0    3.5958609999999998    -0.88583
    C    0.0    2.295156    -1.369538
    C    -0.0    -2.439156    -1.477538
    C    0.0    -3.691861    -0.8138299999999999
    C    0.0    -3.7195080000000003    0.565989
    C    -0.0    -2.5186550000000003    1.2784309999999999
    C    0.0    -0.024    1.573369
    C    0.0    0.036    -1.309189
    C    0.0    1.322055    0.907065
    C    0.0    1.197471    -0.512804
    C    0.0    -1.250055    0.655065
    C    0.0    -1.245471    -0.740804
    H    0.0    2.882071    2.4936469999999997
    H    -0.0    4.796753    0.901689
    H    0.0    4.4452620000000005    -1.570349
    H    0.0    2.09555    -2.452059
    H    0.0    0.186    -2.382266
    H    -0.0    -2.40755    -2.560059
    H    0.0    -4.613262    -1.3903489999999998
    H    0.0    -4.652753    1.1056890000000001
    H    -0.0    -2.558071    2.361647
    H    -0.859585    -0.144    2.265787
    H    0.859585    -0.144    2.265787

