%NProcShared=48
%mem = 190GB
#n M062X/6-311++G(d,p) TD(NStates=1) EmpiricalDispersion=GD3 SP
 
 SP_2

1 1
    C    0.0    2.570655    1.374431
    C    0.0    3.735508    0.5939889999999999
    C    0.0    3.647861    -0.79383
    C    0.0    2.391156    -1.397538
    C    -0.0    -2.439156    -1.433538
    C    0.0    -3.679861    -0.76983
    C    0.0    -3.7155080000000003    0.6139889999999999
    C    -0.0    -2.5186550000000003    1.330431
    C    0.0    -0.008    1.513369
    C    0.0    0.012    -1.369189
    C    0.0    1.286055    0.7710650000000001
    C    0.0    1.221471    -0.6408039999999999
    C    0.0    -1.262055    0.687065
    C    0.0    -1.237471    -0.716804
    H    0.0    2.658071    2.4576469999999997
    H    -0.0    4.704752999999999    1.073689
    H    0.0    4.541262000000001    -1.406349
    H    0.0    2.30755    -2.4800590000000002
    H    0.0    0.062    -2.446266
    H    -0.0    -2.41155    -2.516059
    H    0.0    -4.597262    -1.346349
    H    0.0    -4.656752999999999    1.141689
    H    -0.0    -2.5500710000000004    2.413647
    H    -0.859585    -0.048    2.205787
    H    0.859585    -0.048    2.205787

