%NProcShared=48
%mem = 190GB
#n M062X/6-311++G(d,p) TD(NStates=1) EmpiricalDispersion=GD3 SP
 
 SP_0

1 1
    C    0.0    2.596655    1.344431
    C    0.0    3.749508    0.5359889999999999
    C    0.0    3.643861    -0.84983
    C    0.0    2.367156    -1.423538
    C    -0.0    -2.367156    -1.423538
    C    0.0    -3.643861    -0.84983
    C    0.0    -3.749508    0.5359889999999999
    C    -0.0    -2.596655    1.344431
    C    0.0    0.0    1.573369
    C    0.0    0.0    -1.309189
    C    0.0    1.286055    0.781065
    C    0.0    1.221471    -0.626804
    C    0.0    -1.286055    0.781065
    C    0.0    -1.221471    -0.626804
    H    0.0    2.720071    2.427647
    H    -0.0    4.724753    1.003689
    H    0.0    4.529262    -1.480349
    H    0.0    2.25155    -2.506059
    H    0.0    0.0    -2.382266
    H    -0.0    -2.25155    -2.506059
    H    0.0    -4.529262    -1.480349
    H    0.0    -4.724753    1.003689
    H    -0.0    -2.720071    2.427647
    H    -0.859585    0.0    2.265787
    H    0.859585    -0.0    2.265787

