%NProcShared=48
%mem = 190GB
#n M062X/6-311++G(d,p) TD(NStates=1) EmpiricalDispersion=GD3 SP
 
 SP_6

1 1
    C    0.0    2.6486549999999998    1.414431
    C    0.0    3.767508    0.5399889999999999
    C    0.0    3.605861    -0.85183
    C    0.0    2.319156    -1.365538
    C    -0.0    -2.463156    -1.473538
    C    0.0    -3.701861    -0.7798299999999999
    C    0.0    -3.7075080000000002    0.599989
    C    -0.0    -2.492655    1.2824309999999999
    C    0.0    -0.024    1.543369
    C    0.0    0.036    -1.339189
    C    0.0    1.316055    0.881065
    C    0.0    1.201471    -0.5388040000000001
    C    0.0    -1.244055    0.629065
    C    0.0    -1.249471    -0.766804
    H    0.0    2.824071    2.4976469999999997
    H    -0.0    4.774753    0.9536889999999999
    H    0.0    4.465262000000001    -1.518349
    H    0.0    2.14955    -2.448059
    H    0.0    0.186    -2.414266
    H    -0.0    -2.4615500000000003    -2.556059
    H    0.0    -4.633262    -1.3383489999999998
    H    0.0    -4.6307529999999995    1.1576890000000002
    H    -0.0    -2.500071    2.365647
    H    -0.859585    -0.144    2.2357869999999997
    H    0.859585    -0.144    2.2357869999999997

