%NProcShared=48
%mem = 190GB
#n M062X/6-311++G(d,p) TD(NStates=1) EmpiricalDispersion=GD3 SP
 
 SP_-6

1 1
    C    0.0    2.310655    1.310431
    C    0.0    3.623508    0.837989
    C    0.0    3.771861    -0.5418299999999999
    C    0.0    2.6311560000000003    -1.445538
    C    0.0    -2.487156    -1.337538
    C    -0.0    -3.675861    -0.61383
    C    -0.0    -3.683508    0.7779889999999999
    C    0.0    -2.466655    1.442431
    C    0.0    0.024    1.3333689999999998
    C    0.0    -0.036    -1.5491890000000001
    C    -0.0    1.2020549999999999    0.44706500000000005
    C    -0.0    1.277471    -0.948804
    C    0.0    -1.274055    0.699065
    C    0.0    -1.229471    -0.720804
    H    0.0    2.0940710000000005    2.393647
    H    0.0    4.4767529999999995    1.521689
    H    0.0    4.773262    -0.9743489999999999
    H    0.0    2.8395500000000005    -2.528059
    H    0.0    -0.186    -2.6382660000000002
    H    0.0    -2.52755    -2.420059
    H    -0.0    -4.605262000000001    -1.154349
    H    -0.0    -4.620753    1.3176889999999999
    H    0.0    -2.4180710000000003    2.5256469999999998
    H    -0.859585    0.144    2.025787
    H    0.859585    0.144    2.025787

