%NProcShared=48
%mem = 190GB
#n M062X/6-311++G(d,p) TD(NStates=1) EmpiricalDispersion=GD3 SP
 
 SP_2

1 1
    C    -0.0    2.466655    1.390431
    C    0.0    3.687508    0.729989
    C    0.0    3.687861    -0.6578299999999999
    C    -0.0    2.487156    -1.381538
    C    0.0    -2.535156    -1.417538
    C    0.0    -3.719861    -0.6338299999999999
    C    0.0    -3.667508    0.749989
    C    0.0    -2.414655    1.346431
    C    0.0    -0.008    1.3933689999999999
    C    0.0    0.012    -1.489189
    C    0.0    1.262055    0.667065
    C    0.0    1.237471    -0.744804
    C    0.0    -1.238055    0.5830649999999999
    C    0.0    -1.253471    -0.8208040000000001
    H    -0.0    2.426071    2.4736469999999997
    H    0.0    4.616753    1.281689
    H    0.0    4.621262000000001    -1.1983489999999999
    H    -0.0    2.52355    -2.464059
    H    0.0    0.062    -2.574266
    H    0.0    -2.6275500000000003    -2.500059
    H    0.0    -4.677262    -1.1383489999999998
    H    0.0    -4.568753    1.3496890000000001
    H    0.0    -2.318071    2.429647
    H    -0.859585    -0.048    2.085787
    H    0.859585    -0.048    2.085787

