%NProcShared=48
%mem = 190GB
#n M062X/6-311++G(d,p) TD(NStates=1) EmpiricalDispersion=GD3 SP
 
 SP_-10

1 1
    C    0.0    2.2846550000000003    1.2624309999999999
    C    0.0    3.615508    0.823989
    C    0.0    3.7938609999999997    -0.5518299999999999
    C    0.0    2.6551560000000003    -1.485538
    C    0.0    -2.415156    -1.3055379999999999
    C    -0.0    -3.6338609999999996    -0.67183
    C    -0.0    -3.715508    0.7239889999999999
    C    0.0    -2.544655    1.482431
    C    0.0    0.04    1.3633689999999998
    C    0.0    -0.06    -1.5191890000000001
    C    -0.0    1.1840549999999999    0.389065
    C    -0.0    1.289471    -0.9988039999999999
    C    0.0    -1.304055    0.809065
    C    0.0    -1.209471    -0.618804
    H    0.0    2.044071    2.345647
    H    0.0    4.450753    1.5376889999999999
    H    0.0    4.8092619999999995    -0.966349
    H    0.0    2.88955    -2.568059
    H    0.0    -0.31    -2.606266
    H    0.0    -2.3695500000000003    -2.388059
    H    -0.0    -4.529262    -1.266349
    H    -0.0    -4.690753    1.197689
    H    0.0    -2.5840710000000002    2.565647
    H    -0.859585    0.24    2.055787
    H    0.859585    0.24    2.055787

