%NProcShared=48
%mem = 190GB
#n M062X/6-311++G(d,p) TD(NStates=1) EmpiricalDispersion=GD3 SP
 
 SP_-2

1 1
    C    0.0    2.3886550000000004    1.350431
    C    0.0    3.655508    0.7839889999999999
    C    0.0    3.7298609999999996    -0.59983
    C    0.0    2.559156    -1.413538
    C    0.0    -2.511156    -1.377538
    C    -0.0    -3.6978609999999996    -0.62383
    C    -0.0    -3.6755079999999998    0.7639889999999999
    C    0.0    -2.440655    1.394431
    C    0.0    0.008    1.3633689999999998
    C    0.0    -0.012    -1.5191890000000001
    C    -0.0    1.232055    0.557065
    C    -0.0    1.257471    -0.846804
    C    0.0    -1.256055    0.6410650000000001
    C    0.0    -1.241471    -0.7708039999999999
    H    0.0    2.2600710000000004    2.433647
    H    0.0    4.546753    1.401689
    H    0.0    4.697261999999999    -1.086349
    H    0.0    2.68155    -2.496059
    H    0.0    -0.062    -2.606266
    H    0.0    -2.57755    -2.460059
    H    -0.0    -4.641262    -1.146349
    H    -0.0    -4.594753    1.333689
    H    0.0    -2.368071    2.4776469999999997
    H    -0.859585    0.048    2.055787
    H    0.859585    0.048    2.055787

