%NProcShared=48
%mem = 190GB
#n M062X/6-311++G(d,p) TD(NStates=1) EmpiricalDispersion=GD3 SP
 
 SP_4

1 1
    C    0.0    2.648655    1.388431
    C    0.0    3.769508    0.5159889999999999
    C    0.0    3.6118609999999998    -0.87383
    C    0.0    2.319156    -1.387538
    C    -0.0    -2.415156    -1.459538
    C    0.0    -3.675861    -0.82583
    C    0.0    -3.729508    0.555989
    C    -0.0    -2.544655    1.300431
    C    0.0    -0.016    1.573369
    C    0.0    0.024    -1.309189
    C    0.0    1.310055    0.865065
    C    0.0    1.205471    -0.5508040000000001
    C    0.0    -1.262055    0.697065
    C    0.0    -1.237471    -0.702804
    H    0.0    2.8280710000000004    2.471647
    H    -0.0    4.772753    0.935689
    H    0.0    4.473262    -1.540349
    H    0.0    2.14755    -2.470059
    H    0.0    0.124    -2.382266
    H    -0.0    -2.35555    -2.542059
    H    0.0    -4.585262    -1.4203489999999999
    H    0.0    -4.676753    1.0716890000000001
    H    -0.0    -2.6120710000000003    2.383647
    H    -0.859585    -0.096    2.265787
    H    0.859585    -0.096    2.265787

