%NProcShared=48
%mem = 190GB
#n M062X/6-311++G(d,p) TD(NStates=1) EmpiricalDispersion=GD3 SP
 
 SP_0

1 1
    C    0.0    2.544655    1.352431
    C    0.0    3.725508    0.6039889999999999
    C    0.0    3.663861    -0.78183
    C    0.0    2.415156    -1.415538
    C    -0.0    -2.415156    -1.415538
    C    0.0    -3.663861    -0.78183
    C    0.0    -3.725508    0.6039889999999999
    C    -0.0    -2.544655    1.352431
    C    0.0    0.0    1.513369
    C    0.0    0.0    -1.369189
    C    0.0    1.274055    0.7290650000000001
    C    0.0    1.229471    -0.678804
    C    0.0    -1.274055    0.7290650000000001
    C    0.0    -1.229471    -0.678804
    H    0.0    2.6040710000000002    2.435647
    H    -0.0    4.680752999999999    1.107689
    H    0.0    4.569262    -1.376349
    H    0.0    2.35955    -2.498059
    H    0.0    0.0    -2.446266
    H    -0.0    -2.35955    -2.498059
    H    0.0    -4.569262    -1.376349
    H    0.0    -4.680752999999999    1.107689
    H    -0.0    -2.6040710000000002    2.435647
    H    -0.859585    0.0    2.205787
    H    0.859585    -0.0    2.205787

