%NProcShared=48
%mem = 190GB
#n M062X/6-311++G(d,p) TD(NStates=1) EmpiricalDispersion=GD3 SP
 
 SP_6

1 1
    C    -0.0    2.492655    1.438431
    C    0.0    3.695508    0.7439889999999999
    C    0.0    3.6658609999999996    -0.64783
    C    -0.0    2.463156    -1.341538
    C    0.0    -2.6071560000000003    -1.449538
    C    0.0    -3.7618609999999997    -0.57583
    C    0.0    -3.635508    0.803989
    C    0.0    -2.3366550000000004    1.306431
    C    0.0    -0.024    1.3633689999999998
    C    0.0    0.036    -1.5191890000000001
    C    0.0    1.280055    0.7250650000000001
    C    0.0    1.225471    -0.694804
    C    0.0    -1.2080549999999999    0.473065
    C    0.0    -1.273471    -0.922804
    H    -0.0    2.476071    2.5216469999999997
    H    0.0    4.642753    1.2656889999999998
    H    0.0    4.585262    -1.2063490000000001
    H    -0.0    2.47355    -2.424059
    H    0.0    0.186    -2.606266
    H    0.0    -2.78555    -2.532059
    H    0.0    -4.753261999999999    -1.026349
    H    0.0    -4.498753    1.469689
    H    0.0    -2.1520710000000003    2.389647
    H    -0.859585    -0.144    2.055787
    H    0.859585    -0.144    2.055787

