%NProcShared=48
%mem = 190GB
#n M062X/6-311++G(d,p) TD(NStates=1) EmpiricalDispersion=GD3 SP
 
 SP_-8

1 1
    C    0.0    2.4146549999999998    1.2684309999999999
    C    -0.0    3.673508    0.677989
    C    -0.0    3.737861    -0.69983
    C    0.0    2.535156    -1.483538
    C    0.0    -2.343156    -1.339538
    C    0.0    -3.609861    -0.79583
    C    0.0    -3.753508    0.5979889999999999
    C    0.0    -2.622655    1.444431
    C    -0.0    0.032    1.483369
    C    0.0    -0.048    -1.399189
    C    0.0    1.220055    0.5350650000000001
    C    0.0    1.265471    -0.856804
    C    -0.0    -1.316055    0.871065
    C    -0.0    -1.201471    -0.552804
    H    0.0    2.330071    2.351647
    H    0.0    4.562753    1.2956889999999999
    H    -0.0    4.701262000000001    -1.2043490000000001
    H    0.0    2.6215500000000005    -2.566059
    H    0.0    -0.248    -2.478266
    H    0.0    -2.20555    -2.422059
    H    0.0    -4.4772620000000005    -1.4443489999999999
    H    0.0    -4.754753    1.023689
    H    0.0    -2.762071    2.527647
    H    -0.859585    0.192    2.1757869999999997
    H    0.859585    0.192    2.1757869999999997

