%NProcShared=48
%mem = 190GB
#n M062X/6-311++G(d,p) TD(NStates=1) EmpiricalDispersion=GD3 SP
 
 SP_-2

1 1
    C    0.0    2.362655    1.354431
    C    0.0    3.643508    0.817989
    C    0.0    3.739861    -0.5658299999999999
    C    0.0    2.5831560000000002    -1.409538
    C    0.0    -2.535156    -1.373538
    C    -0.0    -3.707861    -0.58983
    C    -0.0    -3.6635079999999998    0.797989
    C    0.0    -2.4146549999999998    1.398431
    C    0.0    0.008    1.3333689999999998
    C    0.0    -0.012    -1.5491890000000001
    C    -0.0    1.226055    0.531065
    C    -0.0    1.261471    -0.872804
    C    0.0    -1.250055    0.6150650000000001
    C    0.0    -1.245471    -0.796804
    H    0.0    2.202071    2.437647
    H    0.0    4.524753    1.453689
    H    0.0    4.717262    -1.034349
    H    0.0    2.7355500000000004    -2.492059
    H    0.0    -0.062    -2.6382660000000002
    H    0.0    -2.6315500000000003    -2.456059
    H    -0.0    -4.661262000000001    -1.094349
    H    -0.0    -4.572753    1.385689
    H    0.0    -2.3100709999999998    2.4816469999999997
    H    -0.859585    0.048    2.025787
    H    0.859585    0.048    2.025787

