%NProcShared=48
%mem = 190GB
#n M062X/6-311++G(d,p) TD(NStates=1) EmpiricalDispersion=GD3 SP
 
 SP_-2

1 1
    C    0.0    2.4406550000000005    1.342431
    C    0.0    3.6795080000000002    0.715989
    C    0.0    3.7098609999999996    -0.6678299999999999
    C    0.0    2.511156    -1.421538
    C    0.0    -2.463156    -1.385538
    C    -0.0    -3.6778609999999996    -0.69183
    C    -0.0    -3.699508    0.695989
    C    0.0    -2.492655    1.386431
    C    0.0    0.008    1.4233689999999999
    C    0.0    -0.012    -1.459189
    C    -0.0    1.244055    0.609065
    C    -0.0    1.249471    -0.7948040000000001
    C    0.0    -1.268055    0.693065
    C    0.0    -1.233471    -0.718804
    H    0.0    2.3760710000000005    2.425647
    H    0.0    4.590752999999999    1.297689
    H    0.0    4.657261999999999    -1.1903489999999999
    H    0.0    2.57355    -2.504059
    H    0.0    -0.062    -2.542266
    H    0.0    -2.46955    -2.4680590000000002
    H    -0.0    -4.601262    -1.250349
    H    -0.0    -4.6387529999999995    1.229689
    H    0.0    -2.484071    2.4696469999999997
    H    -0.859585    0.048    2.115787
    H    0.859585    0.048    2.115787

