%NProcShared=48
%mem = 190GB
#n M062X/6-311++G(d,p) TD(NStates=1) EmpiricalDispersion=GD3 SP
 
 SP_4

1 1
    C    0.0    2.596655    1.396431
    C    0.0    3.745508    0.5839889999999999
    C    0.0    3.631861    -0.80583
    C    0.0    2.367156    -1.379538
    C    -0.0    -2.463156    -1.451538
    C    0.0    -3.695861    -0.75783
    C    0.0    -3.705508    0.6239889999999999
    C    -0.0    -2.492655    1.308431
    C    0.0    -0.016    1.513369
    C    0.0    0.024    -1.369189
    C    0.0    1.298055    0.813065
    C    0.0    1.213471    -0.602804
    C    0.0    -1.250055    0.6450650000000001
    C    0.0    -1.245471    -0.7548039999999999
    H    0.0    2.7120710000000003    2.479647
    H    -0.0    4.728752999999999    1.0396889999999999
    H    0.0    4.513262    -1.436349
    H    0.0    2.25555    -2.462059
    H    0.0    0.124    -2.446266
    H    -0.0    -2.46355    -2.534059
    H    0.0    -4.625262    -1.316349
    H    0.0    -4.632752999999999    1.175689
    H    -0.0    -2.496071    2.391647
    H    -0.859585    -0.096    2.205787
    H    0.859585    -0.096    2.205787

