%NProcShared=48
%mem = 190GB
#n M062X/6-311++G(d,p) TD(NStates=1) EmpiricalDispersion=GD3 SP
 
 SP_8

1 1
    C    0.0    2.648655    1.440431
    C    0.0    3.765508    0.5639889999999999
    C    0.0    3.5998609999999998    -0.8298300000000001
    C    0.0    2.319156    -1.343538
    C    -0.0    -2.511156    -1.487538
    C    0.0    -3.727861    -0.73383
    C    0.0    -3.685508    0.6439889999999999
    C    -0.0    -2.440655    1.2644309999999999
    C    0.0    -0.032    1.513369
    C    0.0    0.048    -1.369189
    C    0.0    1.322055    0.897065
    C    0.0    1.197471    -0.5268039999999999
    C    0.0    -1.226055    0.5610650000000001
    C    0.0    -1.261471    -0.830804
    H    0.0    2.8200710000000004    2.523647
    H    -0.0    4.776752999999999    0.9716890000000001
    H    0.0    4.457262    -1.496349
    H    0.0    2.15155    -2.426059
    H    0.0    0.248    -2.446266
    H    -0.0    -2.56755    -2.570059
    H    0.0    -4.681262    -1.2563490000000002
    H    0.0    -4.584752999999999    1.2436889999999998
    H    -0.0    -2.388071    2.347647
    H    -0.859585    -0.192    2.205787
    H    0.859585    -0.192    2.205787

