%NProcShared=48
%mem = 190GB
#n M062X/6-311++G(d,p) TD(NStates=1) EmpiricalDispersion=GD3 SP
 
 SP_-10

1 1
    C    0.0    2.388655    1.2464309999999998
    C    -0.0    3.663508    0.687989
    C    -0.0    3.753861    -0.6878299999999999
    C    0.0    2.559156    -1.501538
    C    0.0    -2.319156    -1.3215379999999999
    C    0.0    -3.593861    -0.80783
    C    0.0    -3.763508    0.5879889999999999
    C    0.0    -2.6486549999999998    1.466431
    C    -0.0    0.04    1.483369
    C    0.0    -0.06    -1.399189
    C    0.0    1.2080549999999999    0.49306500000000003
    C    0.0    1.273471    -0.8948039999999999
    C    -0.0    -1.328055    0.913065
    C    -0.0    -1.193471    -0.514804
    H    0.0    2.276071    2.329647
    H    0.0    4.538753    1.329689
    H    -0.0    4.729262    -1.174349
    H    0.0    2.67355    -2.584059
    H    0.0    -0.31    -2.478266
    H    0.0    -2.1535500000000005    -2.404059
    H    0.0    -4.449262000000001    -1.474349
    H    0.0    -4.778753    0.989689
    H    0.0    -2.816071    2.5496469999999998
    H    -0.859585    0.24    2.1757869999999997
    H    0.859585    0.24    2.1757869999999997

