%NProcShared=32
%mem = 128GB
#n M062X/6-311++G(d,p) TD(NStates=1) EmpiricalDispersion=GD3 SP
 
 SP_-4

1 1
    C    2.4927    1.3531    -0.068
    C    3.7015    0.6987    -0.004
    C    3.6839    -0.6840999999999999    0.016
    C    2.4632    -1.4429    0.088
    C    -2.4632    -1.3949    0.07200000000000001
    C    -3.6839    -0.7081    -0.016
    C    -3.7015    0.6987    -0.02
    C    -2.4927    1.4171    -0.068
    C    0.0    1.4701    -0.132
    C    0.0    -1.4495    0.10800000000000001
    C    1.2621    0.6607    -0.043
    C    1.2375    -0.7431    0.053000000000000005
    C    -1.2621    0.6927    -0.021
    C    -1.2375    -0.7191    0.051000000000000004
    H    2.4881    2.4013    -0.072
    H    4.6368    1.2024    0.055
    H    4.6093    -1.2867000000000002    -0.054000000000000006
    H    2.4675    -2.5624    0.092
    H    0.0    -2.5265999999999997    0.11200000000000002
    H    -2.4675    -2.4183999999999997    0.07599999999999998
    H    -4.6093    -1.2387000000000001    -0.05800000000000001
    H    -4.6368    1.2744    0.041
    H    -2.4881    2.5133    -0.072
    H    0.008    2.1985    -0.9796
    H    -0.008    2.1985    0.7396

