%NProcShared=32
%mem = 128GB
#n M062X/6-311++G(d,p) TD(NStates=1) EmpiricalDispersion=GD3 SP
 
 SP_3

1 1
    C    2.4927    1.3611    0.051000000000000004
    C    3.7015    0.6446999999999999    -0.007000000000000001
    C    3.6839    -0.7321    -0.032
    C    2.4632    -1.3409    -0.07600000000000001
    C    -2.4632    -1.3769    -0.04400000000000001
    C    -3.6839    -0.7141    0.032
    C    -3.7015    0.6446999999999999    0.025
    C    -2.4927    1.3131    0.051000000000000004
    C    0.0    1.4461    0.099
    C    0.0    -1.3625    -0.081
    C    1.2621    0.7157    0.046
    C    1.2375    -0.6950999999999999    -0.041
    C    -1.2621    0.6917    0.0020000000000000018
    C    -1.2375    -0.7131    -0.037
    H    2.4881    2.4843    0.054000000000000006
    H    4.6368    1.2113999999999998    -0.05
    H    4.6093    -1.2477    0.038000000000000006
    H    2.4675    -2.4094    -0.079
    H    0.0    -2.4516    -0.084
    H    -2.4675    -2.5174    -0.047
    H    -4.6093    -1.2837    0.046
    H    -4.6368    1.1574    -0.021999999999999995
    H    -2.4881    2.4003000000000005    0.054000000000000006
    H    -0.006    2.0665    -0.7696000000000001
    H    0.006    2.0665    0.9496

