%NProcShared=32
%mem = 128GB
#n M062X/6-311++G(d,p) TD(NStates=1) EmpiricalDispersion=GD3 SP
 
 SP_-2

1 1
    C    2.4927    1.3371    -0.034
    C    3.7015    0.6627    -0.014
    C    3.6839    -0.7081    -0.016
    C    2.4632    -1.3909    0.032
    C    -2.4632    -1.3669    0.048
    C    -3.6839    -0.7201    0.016
    C    -3.7015    0.6627    0.002
    C    -2.4927    1.3691    -0.034
    C    0.0    1.4541    -0.066
    C    0.0    -1.3915000000000002    0.054000000000000006
    C    1.2621    0.6867    -0.005000000000000001
    C    1.2375    -0.7191    0.025
    C    -1.2621    0.7027    -0.027
    C    -1.2375    -0.7071    0.027000000000000003
    H    2.4881    2.4193000000000002    -0.036
    H    4.6368    1.1844    0.017
    H    4.6093    -1.2767    -0.030000000000000006
    H    2.4675    -2.5084    0.033999999999999996
    H    0.0    -2.4766    0.05600000000000001
    H    -2.4675    -2.4364    0.049999999999999996
    H    -4.6093    -1.2527    -0.026000000000000002
    H    -4.6368    1.2204    0.031
    H    -2.4881    2.4753000000000003    -0.036
    H    0.004    2.1105    -0.9196
    H    -0.004    2.1105    0.7996000000000001

