%NProcShared=32
%mem = 128GB
#n M062X/6-311++G(d,p) TD(NStates=1) EmpiricalDispersion=GD3 SP
 
 SP_-1

1 1
    C    2.4927    1.3291    -0.017
    C    3.7015    0.6446999999999999    -0.019
    C    3.6839    -0.7201    -0.032
    C    2.4632    -1.3649    0.004
    C    -2.4632    -1.3529    0.036000000000000004
    C    -3.6839    -0.7261    0.032
    C    -3.7015    0.6446999999999999    0.013000000000000001
    C    -2.4927    1.3451    -0.017
    C    0.0    1.4461    -0.033
    C    0.0    -1.3625    0.027000000000000003
    C    1.2621    0.6997    0.013999999999999999
    C    1.2375    -0.7071    0.011000000000000001
    C    -1.2621    0.7077    -0.03
    C    -1.2375    -0.7011    0.015000000000000001
    H    2.4881    2.4283000000000006    -0.018
    H    4.6368    1.1754    -0.0020000000000000018
    H    4.6093    -1.2717    -0.018000000000000002
    H    2.4675    -2.4814    0.0049999999999999975
    H    0.0    -2.4516    0.028000000000000004
    H    -2.4675    -2.4454000000000002    0.037
    H    -4.6093    -1.2597    -0.010000000000000002
    H    -4.6368    1.1933999999999998    0.026000000000000002
    H    -2.4881    2.4563    -0.018
    H    0.002    2.0665    -0.8896000000000001
    H    -0.002    2.0665    0.8296

