%NProcShared=32
%mem = 128GB
#n M062X/6-311++G(d,p) TD(NStates=1) EmpiricalDispersion=GD3 SP
 
 SP_-3

1 1
    C    2.4927    1.3611    -0.051000000000000004
    C    3.7015    0.6987    -0.0009999999999999992
    C    3.6839    -0.6870999999999999    0.016
    C    2.4632    -1.4369    0.068
    C    -2.4632    -1.4009    0.05200000000000001
    C    -3.6839    -0.7051    -0.016
    C    -3.7015    0.6987    -0.017
    C    -2.4927    1.4091    -0.051000000000000004
    C    0.0    1.4701    -0.099
    C    0.0    -1.4495    0.081
    C    1.2621    0.6647    -0.035
    C    1.2375    -0.7401    0.04
    C    -1.2621    0.6887    -0.013000000000000001
    C    -1.2375    -0.7221    0.038
    H    2.4881    2.4153000000000002    -0.054000000000000006
    H    4.6368    1.2114    0.043
    H    4.6093    -1.2807000000000002    -0.04
    H    2.4675    -2.5443999999999996    0.07100000000000001
    H    0.0    -2.5265999999999997    0.084
    H    -2.4675    -2.4364    0.055
    H    -4.6093    -1.2447000000000001    -0.044000000000000004
    H    -4.6368    1.2653999999999999    0.028999999999999998
    H    -2.4881    2.4993    -0.054000000000000006
    H    0.006    2.1985    -0.9496
    H    -0.006    2.1985    0.7696000000000001

