%NProcShared=32
%mem = 128GB
#n M062X/6-311++G(d,p) TD(NStates=1) EmpiricalDispersion=GD3 SP
 
 SP_2

1 1
    C    2.4927    1.4331    0.034
    C    3.7015    0.7347    0.03
    C    3.6839    -0.6840999999999999    0.048
    C    2.4632    -1.4469    -0.016
    C    -2.4632    -1.4709    -0.064
    C    -3.6839    -0.6720999999999999    -0.048
    C    -3.7015    0.7347    -0.018000000000000002
    C    -2.4927    1.4011    0.034
    C    0.0    1.4861    0.066
    C    0.0    -1.5075    -0.054000000000000006
    C    1.2621    0.6667    -0.017
    C    1.2375    -0.7431    -0.023000000000000003
    C    -1.2621    0.6507    0.049
    C    -1.2375    -0.7551    -0.029
    H    2.4881    2.4953000000000003    0.036
    H    4.6368    1.2924    -0.002999999999999999
    H    4.6093    -1.2487000000000001    0.034
    H    2.4675    -2.4724    -0.017999999999999995
    H    0.0    -2.5766    -0.05600000000000001
    H    -2.4675    -2.5444    -0.066
    H    -4.6093    -1.2727000000000002    0.022000000000000006
    H    -4.6368    1.2564    -0.045
    H    -2.4881    2.4393000000000002    0.036
    H    -0.004    2.2865    -0.7996000000000001
    H    0.004    2.2865    0.9196

