%NProcShared=32
%mem = 128GB
#n M062X/6-311++G(d,p) TD(NStates=1) EmpiricalDispersion=GD3 SP
 
 SP_0

1 1
    C    2.4927    1.3851    0.0
    C    3.7015    0.6987    0.008
    C    3.6839    -0.6960999999999999    0.016
    C    2.4632    -1.4189    0.008
    C    -2.4632    -1.4189    -0.008
    C    -3.6839    -0.6960999999999999    -0.016
    C    -3.7015    0.6987    -0.008
    C    -2.4927    1.3851    0.0
    C    0.0    1.4701    0.0
    C    0.0    -1.4495    0.0
    C    1.2621    0.6767    -0.011
    C    1.2375    -0.7311    0.001
    C    -1.2621    0.6767    0.011
    C    -1.2375    -0.7311    -0.001
    H    2.4881    2.4573    0.0
    H    4.6368    1.2384    0.007000000000000001
    H    4.6093    -1.2627000000000002    0.002
    H    2.4675    -2.4903999999999997    0.008
    H    0.0    -2.5265999999999997    0.0
    H    -2.4675    -2.4903999999999997    -0.008
    H    -4.6093    -1.2627000000000002    -0.002
    H    -4.6368    1.2384    -0.007000000000000001
    H    -2.4881    2.4573    0.0
    H    0.0    2.1985    -0.8596
    H    0.0    2.1985    0.8596

