%NProcShared=32
%mem = 128GB
#n M062X/6-311++G(d,p) TD(NStates=1) EmpiricalDispersion=GD3 SP
 
 SP_-1

1 1
    C    2.4927    1.4091    -0.017
    C    3.7015    0.7347    0.021
    C    3.6839    -0.6750999999999999    0.048
    C    2.4632    -1.4649    0.044
    C    -2.4632    -1.4529    -0.004
    C    -3.6839    -0.6810999999999999    -0.048
    C    -3.7015    0.7347    -0.027
    C    -2.4927    1.4251    -0.017
    C    0.0    1.4861    -0.033
    C    0.0    -1.5075    0.027000000000000003
    C    1.2621    0.6547    -0.041
    C    1.2375    -0.7521    0.016
    C    -1.2621    0.6627    0.025
    C    -1.2375    -0.7461    0.010000000000000002
    H    2.4881    2.4533000000000005    -0.018
    H    4.6368    1.2654    0.033
    H    4.6093    -1.2667000000000002    -0.008000000000000002
    H    2.4675    -2.5263999999999998    0.045
    H    0.0    -2.5766    0.028000000000000004
    H    -2.4675    -2.4904    -0.0030000000000000027
    H    -4.6093    -1.2547000000000001    -0.020000000000000004
    H    -4.6368    1.2833999999999999    -0.009000000000000001
    H    -2.4881    2.4813    -0.018
    H    0.002    2.2865    -0.8896000000000001
    H    -0.002    2.2865    0.8296

