%NProcShared=32
%mem = 128GB
#n M062X/6-311++G(d,p) TD(NStates=1) EmpiricalDispersion=GD3 SP
 
 SP_-2

1 1
    C    2.4927    1.3051    -0.034
    C    3.7015    0.6266999999999999    -0.03
    C    3.6839    -0.7261    -0.048
    C    2.4632    -1.3509    0.016
    C    -2.4632    -1.3269    0.064
    C    -3.6839    -0.7381    0.048
    C    -3.7015    0.6266999999999999    0.018000000000000002
    C    -2.4927    1.3371    -0.034
    C    0.0    1.4381    -0.066
    C    0.0    -1.3335000000000001    0.054000000000000006
    C    1.2621    0.7047    0.017
    C    1.2375    -0.7011    0.023000000000000003
    C    -1.2621    0.7207    -0.049
    C    -1.2375    -0.6890999999999999    0.029
    H    2.4881    2.4093    -0.036
    H    4.6368    1.1483999999999999    0.002999999999999999
    H    4.6093    -1.2787    -0.034
    H    2.4675    -2.4903999999999997    0.017999999999999995
    H    0.0    -2.4265999999999996    0.05600000000000001
    H    -2.4675    -2.4183999999999997    0.066
    H    -4.6093    -1.2547    -0.022000000000000006
    H    -4.6368    1.1844    0.045
    H    -2.4881    2.4653    -0.036
    H    0.004    2.0225    -0.9196
    H    -0.004    2.0225    0.7996000000000001

