%NProcShared=32
%mem = 128GB
#n M062X/6-311++G(d,p) TD(NStates=1) EmpiricalDispersion=GD3 SP
 
 SP_-4

1 1
    C    2.4927    1.4011    -0.068
    C    3.7015    0.7526999999999999    0.02
    C    3.6839    -0.6570999999999999    0.064
    C    2.4632    -1.5029000000000001    0.112
    C    -2.4632    -1.4549    0.048
    C    -3.6839    -0.6810999999999999    -0.064
    C    -3.7015    0.7526999999999999    -0.044
    C    -2.4927    1.4651    -0.068
    C    0.0    1.4941    -0.132
    C    0.0    -1.5365000000000002    0.10800000000000001
    C    1.2621    0.6336999999999999    -0.076
    C    1.2375    -0.7701    0.05600000000000001
    C    -1.2621    0.6657    0.011999999999999997
    C    -1.2375    -0.7461    0.048
    H    2.4881    2.4163    -0.072
    H    4.6368    1.2564    0.07600000000000001
    H    4.6093    -1.2837    -0.04800000000000001
    H    2.4675    -2.5894    0.11599999999999999
    H    0.0    -2.6016    0.11200000000000002
    H    -2.4675    -2.4454    0.05199999999999999
    H    -4.6093    -1.2357    -0.064
    H    -4.6368    1.3284    0.019999999999999997
    H    -2.4881    2.5283    -0.072
    H    0.008    2.3305000000000002    -0.9796
    H    -0.008    2.3305000000000002    0.7396

