%NProcShared=32
%mem = 128GB
#n M062X/6-311++G(d,p) TD(NStates=1) EmpiricalDispersion=GD3 SP
 
 SP_2

1 1
    C    2.4927    1.4171    0.034
    C    3.7015    0.7167    0.022
    C    3.6839    -0.6930999999999999    0.032
    C    2.4632    -1.4269    -0.024
    C    -2.4632    -1.4509    -0.056
    C    -3.6839    -0.6810999999999999    -0.032
    C    -3.7015    0.7167    -0.01
    C    -2.4927    1.3851    0.034
    C    0.0    1.4781    0.066
    C    0.0    -1.4785000000000001    -0.054000000000000006
    C    1.2621    0.6757    -0.005999999999999998
    C    1.2375    -0.7341    -0.024
    C    -1.2621    0.6597    0.038
    C    -1.2375    -0.7461    -0.028000000000000004
    H    2.4881    2.4903    0.036
    H    4.6368    1.2744    -0.009999999999999998
    H    4.6093    -1.2497    0.032
    H    2.4675    -2.4633999999999996    -0.025999999999999995
    H    0.0    -2.5515999999999996    -0.05600000000000001
    H    -2.4675    -2.5353999999999997    -0.057999999999999996
    H    -4.6093    -1.2737    0.024000000000000004
    H    -4.6368    1.2384    -0.038000000000000006
    H    -2.4881    2.4343    0.036
    H    -0.004    2.2425    -0.7996000000000001
    H    0.004    2.2425    0.9196

