%NProcShared=32
%mem = 128GB
#n M062X/6-311++G(d,p) TD(NStates=1) EmpiricalDispersion=GD3 SP
 
 SP_-4

1 1
    C    2.4927    1.2891    -0.068
    C    3.7015    0.6266999999999999    -0.036000000000000004
    C    3.6839    -0.7201    -0.048
    C    2.4632    -1.3629    0.056
    C    -2.4632    -1.3149    0.10400000000000001
    C    -3.6839    -0.7441    0.048
    C    -3.7015    0.6266999999999999    0.012
    C    -2.4927    1.3531    -0.068
    C    0.0    1.4381    -0.132
    C    0.0    -1.3335000000000001    0.10800000000000001
    C    1.2621    0.6967    0.0010000000000000009
    C    1.2375    -0.7071    0.049
    C    -1.2621    0.7287    -0.065
    C    -1.2375    -0.6830999999999999    0.05500000000000001
    H    2.4881    2.3813    -0.072
    H    4.6368    1.1303999999999998    0.027
    H    4.6093    -1.2907    -0.062000000000000006
    H    2.4675    -2.5263999999999998    0.05999999999999999
    H    0.0    -2.4265999999999996    0.11200000000000002
    H    -2.4675    -2.3823999999999996    0.10799999999999998
    H    -4.6093    -1.2427    -0.05000000000000001
    H    -4.6368    1.2024    0.069
    H    -2.4881    2.4933    -0.072
    H    0.008    2.0225    -0.9796
    H    -0.008    2.0225    0.7396

