%NProcShared=32
%mem = 128GB
#n M062X/6-311++G(d,p) TD(NStates=1) EmpiricalDispersion=GD3 SP
 
 SP_1

1 1
    C    2.4927    1.3931    0.017
    C    3.7015    0.6987    0.011
    C    3.6839    -0.6990999999999999    0.016
    C    2.4632    -1.4129    -0.012
    C    -2.4632    -1.4249    -0.028
    C    -3.6839    -0.6930999999999999    -0.016
    C    -3.7015    0.6987    -0.005
    C    -2.4927    1.3771    0.017
    C    0.0    1.4701    0.033
    C    0.0    -1.4495    -0.027000000000000003
    C    1.2621    0.6807    -0.002999999999999999
    C    1.2375    -0.7281    -0.012
    C    -1.2621    0.6727    0.019
    C    -1.2375    -0.7341    -0.014000000000000002
    H    2.4881    2.4713    0.018
    H    4.6368    1.2473999999999998    -0.004999999999999999
    H    4.6093    -1.2567000000000002    0.016
    H    2.4675    -2.4724    -0.012999999999999998
    H    0.0    -2.5265999999999997    -0.028000000000000004
    H    -2.4675    -2.5083999999999995    -0.028999999999999998
    H    -4.6093    -1.2687000000000002    0.012000000000000002
    H    -4.6368    1.2294    -0.019000000000000003
    H    -2.4881    2.4433000000000002    0.018
    H    -0.002    2.1985    -0.8296
    H    0.002    2.1985    0.8896000000000001

