%NProcShared=8
%mem = 32GB
%Chk=check_sp_0
#n M062X/6-311++G(d,p) SP pop=reg formcheck
 
 SP_-0

1 1
    C    2.49849    1.3728    0.0
    C    3.70996    0.68224    0.0
    C    3.6925    -0.70711    0.0
    C    2.46891    -1.40259    0.0
    C    -2.46891    -1.40259    -0.0
    C    -3.6925    -0.70711    -0.0
    C    -3.70996    0.68224    -0.0
    C    -2.49849    1.3728    -0.0
    C    -0.0    1.46668    0.0
    C    0.0    -1.42453    0.0
    C    1.26462    0.68733    0.0
    C    1.24056    -0.72346    0.0
    C    -1.26462    0.68733    -0.0
    C    -1.24056    -0.72346    -0.0
    H    2.49502    2.45813    0.0
    H    4.64714    1.22293    0.0
    H    4.61986    -1.26659    0.0
    H    2.47359    -2.48723    0.0
    H    0.0    -2.50757    0.0
    H    -2.47359    -2.48723    -0.0
    H    -4.61986    -1.26659    -0.0
    H    -4.64714    1.22293    -0.0
    H    -2.49502    2.45813    -0.0
    H    -0.0    2.15668    -0.86377
    H    -0.0    2.15668    0.86377

