%NProcShared=8
%mem = 32GB
%Chk=check_sp_6
#n M062X/6-311++G(d,p) SP pop=reg formcheck
 
 SP_-6

1 1
    C    2.4873492531801373    1.3726768978251955    0.0
    C    3.6980806401313107    0.6773774640951985    0.0
    C    3.6860986869101344    -0.7172659294214201    0.0
    C    2.4821434837915493    -1.407637189167009    0.0
    C    -2.4556765162084537    -1.3974197086581865    -0.0
    C    -3.6987782109150595    -0.6967694173163725    -0.0
    C    -3.7217162576938865    0.6868563315551902    -0.0
    C    -2.5093229913828474    1.3729231021748058    -0.0
    C    -0.005108740254411162    1.466249142388182    0.0
    C    0.01926549035699631    -1.4244684489125985    0.0
    C    1.2710213130898655    0.6950238859253178    0.0
    C    1.2454225359048015    -0.7247525728354537    0.0
    C    -1.258157135822733    0.6798207673368897    -0.0
    C    -1.2357590151826017    -0.722105876077144    -0.0
    H    2.4915731391054567    2.4578222445629883    0.0
    H    4.635753048830529    1.218498321707018    0.0
    H    4.618567427164546    -1.2677594706606492    0.0
    H    2.4801144152646715    -2.4918463315551906    0.0
    H    0.016434140336479282    -2.507446897825194    0.0
    H    -2.4670655847353316    -2.482367464095197    -0.0
    H    -4.621029470660648    -1.2652974271645478    -0.0
    H    -4.658342297907265    1.227238576118179    -0.0
    H    -2.49846686089454    2.458376204349612    -0.0
    H    -0.028375051292572846    2.156741551087403    -0.8635853467377925
    H    -0.028436602379975386    2.156741551087403    0.8635853467377925

