%NProcShared=8
%mem = 32GB
%Chk=check_sp_15
#n M062X/6-311++G(d,p) SP pop=reg formcheck
 
 SP_-15

1 1
    C    2.4706381329503437    1.3724922445629888    0.0
    C    3.680261600328276    0.6700836602379965    0.0
    C    3.6764967172753362    -0.73249982355355    0.0
    C    2.5019937094788727    -1.4152079729175222    0.0
    C    -2.4358262905211348    -1.3896642716454666    -0.0
    C    -3.708195527287649    -0.6812585432909313    -0.0
    C    -3.739350644234716    0.6937808288879757    -0.0
    C    -2.525572478457119    1.3731077554370148    -0.0
    C    -0.012771850636027903    1.4656028559704553    0.0
    C    0.04816372589249077    -1.4243761222814961    0.0
    C    1.280623282724664    0.7065647148132946    0.0
    C    1.2527163397620036    -0.7266914320886342    0.0
    C    -1.2484628395568322    0.6685569183422241    -0.0
    C    -1.228557537956504    -0.7200746901928601    -0.0
    H    2.486402847763642    2.45736061140747    0.0
    H    4.618672622076321    1.2118508042675447    0.0
    H    4.616628567911365    -1.269513676651623    0.0
    H    2.489901038161679    -2.4987708288879773    0.0
    H    0.041085350841198194    -2.5072622445629853    0.0
    H    -2.4572789618383286    -2.475073660237993    -0.0
    H    -4.622783676651619    -1.2633585679113692    -0.0
    H    -4.675145744768163    1.2337014402954476    -0.0
    H    -2.503637152236351    2.4587455108740297    -0.0
    H    -0.0709376282314321    2.1568338777185074    -0.8633083668444813
    H    -0.07109150594993846    2.1568338777185074    0.8633083668444813

