%NProcShared=8
%mem = 32GB
%Chk=check_sp_13
#n M062X/6-311++G(d,p) SP pop=reg formcheck
 
 SP_-13

1 1
    C    2.4743517152236314    1.372533278621257    0.0
    C    3.684221386951173    0.6717045055395969    0.0
    C    3.6786304883052914    -0.7291145137464101    0.0
    C    2.4975825482150227    -1.4135255765285193    0.0
    C    -2.4402374517849834    -1.3913877020927377    -0.0
    C    -3.7061027903159625    -0.6847054041854738    -0.0
    C    -3.7354318916700873    0.6922420517029123    -0.0
    C    -2.521961481329503    1.3730667213787462    -0.0
    C    -0.01106893721789085    1.4657464751743945    0.0
    C    0.04174189577349201    -1.42439663931063    0.0
    C    1.2784895116947088    0.704000086171522    0.0
    C    1.2510954944604031    -0.7262605744768164    0.0
    C    -1.2506171276159213    0.6710599958965942    -0.0
    C    -1.23015786622897    -0.7205260648338121    -0.0
    H    2.4875518013951563    2.4574631965531406    0.0
    H    4.622468272466145    1.2133280303652054    0.0
    H    4.617059425523184    -1.2691238530980733    0.0
    H    2.487726233073455    -2.497232051702914    0.0
    H    0.03560730406237177    -2.507303278621254    0.0
    H    -2.4594537669265515    -2.476694505539594    -0.0
    H    -4.62239385309807    -1.2637894255231867    -0.0
    H    -4.671411645465742    1.2322652482560545    -0.0
    H    -2.5024881986048375    2.4586634427574925    -0.0
    H    -0.06147927780057449    2.156813360689373    -0.8633699179318839
    H    -0.061612638489946664    2.156813360689373    0.8633699179318839

