%NProcShared=8
%mem = 32GB
%Chk=check_sp_9
#n M062X/6-311++G(d,p) SP pop=reg
 
 SP_-9

1 1
    C    2.4817788797702063    1.3726153467377933    0.0
    C    3.6921409601969657    0.6749461961427978    0.0
    C    3.6828980303652017    -0.7223438941321301    0.0
    C    2.4887602256873236    -1.4101607837505132    0.0
    C    -2.4490597743126807    -1.3948345629872798    -0.0
    C    -3.7019173163725894    -0.6915991259745587    -0.0
    C    -3.72759438654083    0.6891644973327854    -0.0
    C    -2.514739487074271    1.3729846532622088    -0.0
    C    -0.007663110381616742    1.4660337135822732    0.0
    C    0.028898235535494466    -1.4244376733688977    0.0
    C    1.2742219696347983    0.6988708288879768    0.0
    C    1.2478538038572022    -0.7253988592531805    0.0
    C    -1.2549257037340995    0.6760661510053344    -0.0
    C    -1.2333585227739023    -0.721428814115716    -0.0
    H    2.489849708658185    2.4576683668444823    0.0
    H    4.630059573245793    1.216282482560527    0.0
    H    4.6179211407468195    -1.2683442059909737    0.0
    H    2.483376622897007    -2.4941544973327865    0.0
    H    0.024651210504718916    -2.507385346737791    0.0
    H    -2.4638033771029972    -2.4799361961427957    -0.0
    H    -4.621614205990972    -1.2646511407468217    -0.0
    H    -4.663943446860898    1.2293928641772685    -0.0
    H    -2.5001902913418106    2.4584993065244176    -0.0
    H    -0.04256257693885926    2.1567723266311045    -0.8634930201066888
    H    -0.04265490356996307    2.1567723266311045    0.8634930201066888

