%NProcShared=8
%mem = 32GB
%Chk=check_sp_16
#n M062X/6-311++G(d,p) SP pop=reg
 
 SP_-16

1 1
    C    2.4687813418137003    1.3724717275338547    0.0
    C    3.678281707016828    0.6692732375871963    0.0
    C    3.6754298317603586    -0.7341924784571201    0.0
    C    2.5041992901107974    -1.4160491711120238    0.0
    C    -2.4336207098892104    -1.388802556421831    -0.0
    C    -3.7092418957734923    -0.67953511284366    -0.0
    C    -3.7413100205170307    0.6945502174805074    -0.0
    C    -2.527377977020927    1.373128272466149    -0.0
    C    -0.013623307345096432    1.4655310463684856    0.0
    C    0.05137464095199016    -1.4243658637669292    0.0
    C    1.2816901682396415    0.707847029134181    0.0
    C    1.253526762412804    -0.7269068608945431    0.0
    C    -1.2473856955272877    0.667305379565039    -0.0
    C    -1.227757373820271    -0.7198490028723841    -0.0
    H    2.4858283709478846    2.4573093188346347    0.0
    H    4.61677479688141    1.2111121912187144    0.0
    H    4.616413139105457    -1.2697085884283978    0.0
    H    2.4909884407057907    -2.4995402174805093    0.0
    H    0.04382437423061141    -2.507241727533851    0.0
    H    -2.456191559294217    -2.4742632375871922    -0.0
    H    -4.622978588428394    -1.2631431391054606    -0.0
    H    -4.677012794419374    1.234419536315144    -0.0
    H    -2.5042116290521075    2.4587865449322983    -0.0
    H    -0.07566680344686091    2.1568441362330746    -0.8632775913007801
    H    -0.07583093967993436    2.1568441362330746    0.8632775913007801

