%NProcShared=8
%mem = 32GB
%Chk=check_sp_7
#n M062X/6-311++G(d,p) SP pop=reg formcheck
 
 SP_-7

1 1
    C    2.485492462043494    1.3726563807960614    0.0
    C    3.6961007468198623    0.6765670414443983    0.0
    C    3.685031801395157    -0.71895858432499    0.0
    C    2.484349064423474    -1.4084783873615103    0.0
    C    -2.4534709355765294    -1.3965579934345511    -0.0
    C    -3.699824579400903    -0.6950459868691012    -0.0
    C    -3.723675633976201    0.6876257201477219    -0.0
    C    -2.5111284899466555    1.3729436192039401    -0.0
    C    -0.0059601969634796885    1.4661773327862124    0.0
    C    0.022476405416495697    -1.4244581903980316    0.0
    C    1.2720881986048431    0.6963062002462042    0.0
    C    1.2462329585556018    -0.7249680016413627    0.0
    C    -1.2570799917931885    0.6785692285597046    -0.0
    C    -1.2349588510463685    -0.721880188756668    -0.0
    H    2.4909986622896994    2.457770951990153    0.0
    H    4.633855223635617    1.2177597086581875    0.0
    H    4.618351998358637    -1.2679543824374242    0.0
    H    2.4812018178087833    -2.4926157201477226    0.0
    H    0.019173163725892492    -2.5074263807960597    0.0
    H    -2.46597818219122    -2.481557041444397    -0.0
    H    -4.621224382437423    -1.265081998358639    -0.0
    H    -4.660209347558476    1.2279566721378756    -0.0
    H    -2.499041337710297    2.4584172384078804    -0.0
    H    -0.03310422650800165    2.15675180960197    -0.8635545711940913
    H    -0.03317603610997128    2.15675180960197    0.8635545711940913

