%NProcShared=8
%mem = 32GB
%Chk=check_sp_20
#n M062X/6-311++G(d,p) SP pop=reg formcheck
 
 SP_-20

1 1
    C    2.461354177267125    1.3723896594173182    0.0
    C    3.670362133771035    0.6660315469839952    0.0
    C    3.6711622897004483    -0.7409630980714002    0.0
    C    2.5130216126384965    -1.4194139638900296    0.0
    C    -2.4247983873615127    -1.3853556955272885    -0.0
    C    -3.7134273697168654    -0.672641391054575    -0.0
    C    -3.749147525646288    0.6976277718506343    -0.0
    C    -2.5345999712761587    1.3732103405826863    -0.0
    C    -0.017029134181370538    1.465243807960607    0.0
    C    0.0642183011899877    -1.4243248297086615    0.0
    C    1.2859577102995519    0.7129762864177261    0.0
    C    1.2567684530160048    -0.727768576118179    0.0
    C    -1.2430771194091097    0.6622992244562987    -0.0
    C    -1.2245567172753387    -0.7189462535904801    -0.0
    H    2.483530463684856    2.4571041485432934    0.0
    H    4.609183496101762    1.2081577390233929    0.0
    H    4.615551423881821    -1.2704882355354974    0.0
    H    2.4953380508822383    -2.5026177718506366    0.0
    H    0.05478046778826426    -2.5071596594173133    0.0
    H    -2.4518419491177714    -2.4710215469839905    -0.0
    H    -4.623758235535493    -1.2622814238818256    -0.0
    H    -4.684480993024218    1.23729192039393    -0.0
    H    -2.506509536315135    2.4589506811653727    -0.0
    H    -0.09458350430857614    2.156885170291343    -0.8631544891259751
    H    -0.09478867459991794    2.156885170291343    0.8631544891259751

