%NProcShared=8
%mem = 32GB
%Chk=check_sp_4
#n M062X/6-311++G(d,p) SP pop=reg formcheck
 
 SP_-4

1 1
    C    2.491062835453425    1.3727179318834637    0.0
    C    3.7020404267542073    0.6789983093967991    0.0
    C    3.6882324579400896    -0.7138806196142801    0.0
    C    2.4777323225276993    -1.4059547927780058    0.0
    C    -2.460087677472303    -1.3991431391054576    -0.0
    C    -3.696685473943373    -0.700216278210915    -0.0
    C    -3.7177975051292576    0.6853175543701269    -0.0
    C    -2.5057119942552317    1.3728820681165372    -0.0
    C    -0.003405826836274108    1.4663927615921213    0.0
    C    0.01284366023799754    -1.4244889659417324    0.0
    C    1.2688875420599104    0.6924592572835452    0.0
    C    1.243801690603201    -0.7243217152236358    0.0
    C    -1.260311423881822    0.6823238448912597    -0.0
    C    -1.2373593434550678    -0.7225572507180961    -0.0
    H    2.492722092736971    2.457924829708659    0.0
    H    4.639548699220352    1.2199755478046785    0.0
    H    4.618998284776365    -1.2673696471070997    0.0
    H    2.4779396101764477    -2.490307554370127    0.0
    H    0.010956093557652853    -2.5074879318834626    0.0
    H    -2.4692403898235544    -2.483988309396798    -0.0
    H    -4.620639647107098    -1.2657282847763651    -0.0
    H    -4.654608198604844    1.2258023840787862    -0.0
    H    -2.4973179072630267    2.4582941362330746    -0.0
    H    -0.01891670086171523    2.1567210340582688    -0.8636468978251951
    H    -0.01895773491998359    2.1567210340582688    0.8636468978251951

