%NProcShared=8
%mem = 32GB
%Chk=check_sp_5
#n M062X/6-311++G(d,p) SP pop=reg
 
 SP_-5

1 1
    C    2.489206044316781    1.3726974148543296    0.0
    C    3.700060533442759    0.6781878867459988    0.0
    C    3.687165572425112    -0.71557327451785    0.0
    C    2.4799379031596245    -1.4067959909725074    0.0
    C    -2.4578820968403785    -1.3982814238818222    -0.0
    C    -3.6977318424292163    -0.6984928477636437    -0.0
    C    -3.719756881411572    0.6860869429626585    -0.0
    C    -2.50751749281904    1.3729025851456715    -0.0
    C    -0.0042572835453426345    1.4663209519901517    0.0
    C    0.016054575297496924    -1.4244787074271654    0.0
    C    1.269954427574888    0.6937415716044315    0.0
    C    1.2446121132540013    -0.7245371440295447    0.0
    C    -1.2592342798522775    0.6810723061140747    -0.0
    C    -1.2365591793188346    -0.7223315633976201    -0.0
    H    2.4921476159212137    2.4578735371358236    0.0
    H    4.63765087402544    1.2192369347558483    0.0
    H    4.618782855970455    -1.2675645588838744    0.0
    H    2.4790270127205596    -2.491076942962659    0.0
    H    0.013695116947066065    -2.5074674148543283    0.0
    H    -2.468152987279443    -2.4831778867459975    -0.0
    H    -4.620834558883873    -1.2655128559704565    -0.0
    H    -4.656475248256054    1.2265204800984826    -0.0
    H    -2.4978923840787837    2.458335170291343    -0.0
    H    -0.023645876077144034    2.156731292572836    -0.8636161222814938
    H    -0.023697168649979485    2.156731292572836    0.8636161222814938

