%NProcShared=8
%mem = 32GB
%Chk=check_sp_11
#n M062X/6-311++G(d,p) SP pop=reg formcheck
 
 SP_-11

1 1
    C    2.4780652974969186    1.3725743126795251    0.0
    C    3.688181173574069    0.6733253508411974    0.0
    C    3.6807642593352465    -0.7257292039392701    0.0
    C    2.493171386951173    -1.4118431801395164    0.0
    C    -2.444648613048832    -1.3931111325400087    -0.0
    C    -3.704010053344276    -0.6881522650800163    -0.0
    C    -3.7315131391054583    0.6907032745178489    -0.0
    C    -2.5183504842018873    1.3730256873204776    -0.0
    C    -0.009366023799753797    1.4658900943783337    0.0
    C    0.035320065654493235    -1.4244171563397638    0.0
    C    1.2763557406647534    0.7014354575297493    0.0
    C    1.2494746491588027    -0.7258297168649984    0.0
    C    -1.2527714156750105    0.6735630734509643    -0.0
    C    -1.2317581945014362    -0.7209774394747641    -0.0
    H    2.4887007550266707    2.4575657816988117    0.0
    H    4.626263922855969    1.2148052564628662    0.0
    H    4.617490283135002    -1.2687340295445235    0.0
    H    2.4855514279852313    -2.49569327451785    0.0
    H    0.030129257283545346    -2.5073443126795225    0.0
    H    -2.4616285720147744    -2.4783153508411946    -0.0
    H    -4.622004029544521    -1.2642202831350042    -0.0
    H    -4.66767754616332    1.2308290562166615    -0.0
    H    -2.501339244973324    2.4585813746409553    -0.0
    H    -0.05202092736971688    2.156792843660239    -0.8634314690192864
    H    -0.05213377102995487    2.156792843660239    0.8634314690192864

