echo

restart excnw-3

title excnw-3
charge 1

geometry units angstroms print xyz autosym
           C                  -2.371666   -1.554264    0.000000
           C                  -2.321956   -2.948336    0.000000
           C                  -1.087383   -3.599776    0.000000
           C                   0.087290   -2.863154    0.000000
           C                   2.388427    1.505531    0.000000
           C                   2.358097    2.934002    0.000000
           C                   1.150898    3.611940    0.000000
           C                  -0.021373    2.861664    0.000000
           C                  -1.288053    0.695624    0.000000
           C                   1.252105   -0.697618    0.000000
           C                  -1.202714   -0.797777    0.000000
           C                   0.059657   -1.449216    0.000000
           C                   0.000000    1.428198    0.000000
           C                   1.221282    0.742065    0.000000
           H                  -3.333033   -1.051208    0.000000
           H                  -3.240376   -3.521335    0.000000
           H                  -1.044768   -4.681689    0.000000
           H                   1.046845   -3.367874    0.000000
           H                   2.209446   -1.203853    0.000000
           H                   3.352256    1.007234    0.000000
           H                   3.296623    3.475153    0.000000
           H                   1.116187    4.692868    0.000000
           H                  -0.985882    3.359789    0.000000
           H                  -1.882488    1.038809    0.865138
           H                  -1.882488    1.038809   -0.865138
end

basis
  * library 6-311++G**
end

dft
  xc b3lyp
  mult 1
  iterations 300
end

tddft
  cis
  nroots 3
  notriplet
  target 1
  civecs
  grad
    root 1
  end
end

driver
  maxiter 50
end

task tddft optimize
