echo

restart excnw-3

title excnw-3
charge 1

geometry units angstroms print xyz autosym
    C                   -1.37499289    -2.48436620     0.00000000
    C                   -0.67747098    -3.69731294     0.00000000
    C                    0.72698313    -3.70744206     0.00000000
    C                    1.42382632    -2.52074809     0.00000000
    C                    1.40223681     2.44840126     0.00000000
    C                    0.71843015     3.71484772     0.00000000
    C                   -0.66344317     3.75720588     0.00000000
    C                   -1.35271638     2.54927774     0.00000000
    C                   -1.47684008     0.02187814     0.00000000
    C                    1.43408786    -0.06590462     0.00000000
    C                   -0.70252814    -1.27379907     0.00000000
    C                    0.73727520    -1.26521037     0.00000000
    C                   -0.66079097     1.27165955     0.00000000
    C                    0.72044581     1.23112235     0.00000000
    H                   -2.45980490    -2.49808610     0.00000000
    H                   -1.22557490    -4.63121451     0.00000000
    H                    1.25885848    -4.65084891     0.00000000
    H                    2.50749651    -2.51986252     0.00000000
    H                    2.51599251    -0.06084223     0.00000000
    H                    2.48744688     2.45603892     0.00000000
    H                    1.30693738     4.62411412     0.00000000
    H                   -1.19702632     4.69793674     0.00000000
    H                   -2.43744361     2.54303373     0.00000000
    H                   -2.15524694     0.05913121     0.86713057
    H                   -2.15524694     0.05913121    -0.86713057
end

basis
  * library 6-311++G(2d,2p)
end

dft
  xc b3lyp
  mult 1
  iterations 300
end

tddft
  cis
  nroots 3
  notriplet
  target 1
  civecs
  grad
    root 1
  end
end

driver
  maxiter 50
end

task tddft optimize
