echo

restart fexcnw-4

title fexcnw-4
charge 1

memory stack 1600 mb heap 400 mb global 2000 mb

geometry units angstroms print xyz autosym
    C                     -2.47332787       1.38356056   0.00000000
    C                     -3.68688958       0.69345348   0.00000000
    C                     -3.70297787      -0.70841605   0.00000000
    C                     -2.52184172      -1.40894861   0.00000000
    C                      2.43744681      -1.41016255   0.00000000
    C                      3.70491288      -0.73480196   0.00000000
    C                      3.75350449       0.64358401   0.00000000
    C                      2.55122219       1.33653502   0.00000000
    C                      0.02879271       1.47372713   0.00000000
    C                     -0.07127941      -1.43062525   0.00000000
    C                     -1.26856833       0.70661571   0.00000000
    C                     -1.26565516      -0.72984216   0.00000000
    C                      1.27326976       0.65342507   0.00000000
    C                      1.22590146      -0.72461784   0.00000000
    H                     -2.48088206       2.46581069   0.00000000
    H                     -4.61624260       1.24413091   0.00000000
    H                     -4.64613039      -1.23596669   0.00000000
    H                     -2.52561802      -2.49012991   0.00000000
    H                     -0.07146891      -2.51009199   0.00000000
    H                      2.43963241      -2.49264802   0.00000000
    H                      4.60925165      -1.32592047   0.00000000
    H                      4.69505373       1.17088471   0.00000000
    H                      2.54967909       2.41889405   0.00000000
    H                      0.06896188       2.15166033   0.86431926
    H                      0.06896188       2.15166033  -0.86431926
end

basis
  * library 6-311++G(2d,2p)
end

dft
  xc b3lyp
  mult 1
  iterations 300
end

tddft
  cis
  nroots 3
  notriplet
  target 1
  civecs
  grad
    root 1
  end
end

driver
  maxiter 50
end

task tddft freq
