%NProcShared=8
%mem = 32GB
%Chk=check_sp_19
#n M062X/6-311++G(d,p) TD SP pop=reg formcheck
 
 SP_19

1 1
    C    2.533769031596231    1.3731898235535478    0.0
    C    3.747577972917517    0.6976380303652044    0.0
    C    3.712770824784574    -0.67494955683217    0.0
    C    2.4270039679934285    -1.386607234304472    0.0
    C    -2.5108160320065633    -1.4189625892490758    0.0
    C    -3.6726189987689777    -0.7398551784981537    0.0
    C    -3.6727318506360267    0.6676216167418974    0.0
    C    -2.4641855272876487    1.372410176446448    0.0
    C    0.01617767747230201    1.4680443824374234    0.0
    C    -0.06100738613048832    -1.4247249117767717    0.0
    C    1.2443491752154259    0.6629660279031602    0.0
    C    1.2251619696347957    -0.7193668526877299    0.0
    C    -1.285085736561346    0.7111092367665162    0.0
    C    -1.2557631185884286    -0.7277480590890438    0.0
    H    2.5059350594993863    2.4591045588838716    0.0
    H    4.683198678703326    1.2369636479277768    0.0
    H    4.62395314731227    -1.2628866762412778    0.0
    H    2.452929351661874    -2.472611616741895    0.0
    H    -0.05204144439885105    -2.507959823553552    0.0
    H    -2.4942506483381175    -2.5026280303652086    0.0
    H    -4.616156676241282    -1.2706831473122657    0.0
    H    -4.611666056626993    1.2092861756257667    0.0
    H    -2.4841049405006217    2.457350352892896    0.0
    H    0.08985432909314733    2.1564850882232243    -0.8643547353303237
    H    0.09004924086992205    2.1564850882232243    0.8643547353303237

