%NProcShared=8
%mem = 32GB
%Chk=check_sp_5
#n M062X/6-311++G(d,p) TD SP pop=reg formcheck
 
 SP_5

1 1
    C    2.5077739556832186    1.3729025851456704    0.0
    C    3.7198594665572413    0.6862921132540011    0.0
    C    3.697834427574888    -0.69864672548215    0.0
    C    2.457882096840376    -1.3983840090274926    0.0
    C    -2.479937903159622    -1.4068985761181778    0.0
    C    -3.6872681575707835    -0.7157271522363563    0.0
    C    -3.7001631185884283    0.6783930570373414    0.0
    C    -2.48946250718096    1.3726974148543285    0.0
    C    0.0042572835453426345    1.4670390480098483    0.0
    C    -0.016054575297496924    -1.4245812925728347    0.0
    C    1.2592855724251122    0.6809184283955685    0.0
    C    1.2365078867459989    -0.7223828559704553    0.0
    C    -1.2700057201477226    0.6935876938859253    0.0
    C    -1.2445608206811656    -0.7245884366023799    0.0
    H    2.497892384078786    2.4583864628641767    0.0
    H    4.65662912597456    1.2266230652441519    0.0
    H    4.620937144029545    -1.2656154411161258    0.0
    H    2.4681529872794408    -2.4833830570373405    0.0
    H    -0.013695116947066065    -2.5076725851456714    0.0
    H    -2.4790270127205574    -2.491282113254002    0.0
    H    -4.618885441116127    -1.2676671440295437    0.0
    H    -4.637804751743946    1.2193395199015176    0.0
    H    -2.492147615921216    2.457924829708657    0.0
    H    0.023645876077144034    2.1566287074271644    -0.8639238777185063
    H    0.023697168649979485    2.1566287074271644    0.8639238777185063

