%NProcShared=8
%mem = 32GB
%Chk=check_sp_8
#n M062X/6-311++G(d,p) TD SP pop=reg formcheck
 
 SP_8

1 1
    C    2.5133443290931496    1.3729641362330727    0.0
    C    3.7257991464915863    0.6887233812064019    0.0
    C    3.7010350841198205    -0.69356876077144    0.0
    C    2.4512653549446015    -1.3958604144439881    0.0
    C    -2.4865546450553953    -1.4094837217890845    0.0
    C    -3.6841290521132537    -0.72089744357817    0.0
    C    -3.694284989741485    0.6760848912597462    0.0
    C    -2.484046011489536    1.3726358637669256    0.0
    C    0.006811653672548216    1.4672544768157572    0.0
    C    -0.02568732047599508    -1.4246120681165355    0.0
    C    1.2560849158801795    0.6770714854329095    0.0
    C    1.2340766187935983    -0.7217365695527284    0.0
    C    -1.2732371522363561    0.6973423102174805    0.0
    C    -1.2469613130898647    -0.725265498563808    0.0
    H    2.499615814526057    2.4585403405826827    0.0
    H    4.662322601559295    1.228838904390643    0.0
    H    4.621583430447272    -1.2650307057858012    0.0
    H    2.464890779647105    -2.481074891259745    0.0
    H    -0.021912187115305706    -2.5077341362330743    0.0
    H    -2.4822892203528917    -2.4937133812064034    0.0
    H    -4.618300705785803    -1.2683134304472699    0.0
    H    -4.632203602790313    1.217185231842428    0.0
    H    -2.490424185473946    2.4578017275338513    0.0
    H    0.03783340172343046    2.156597931883463    -0.86401620434961
    H    0.03791546983996718    2.156597931883463    0.86401620434961

