%NProcShared=8
%mem = 32GB
%Chk=check_sp_11
#n M062X/6-311++G(d,p) TD SP pop=reg formcheck
 
 SP_11

1 1
    C    2.518914702503081    1.373025687320475    0.0
    C    3.7317388264259312    0.6911546491588025    0.0
    C    3.7042357406647533    -0.6884907960607299    0.0
    C    2.444648613048827    -1.3933368198604836    0.0
    C    -2.4931713869511682    -1.4120688674599913    0.0
    C    -3.680989946655724    -0.7260677349199838    0.0
    C    -3.688406860894542    0.6737767254821511    0.0
    C    -2.4786295157981124    1.3725743126795225    0.0
    C    0.009366023799753797    1.4674699056216662    0.0
    C    -0.035320065654493235    -1.4246428436602363    0.0
    C    1.2528842593352467    0.6732245424702507    0.0
    C    1.2316453508411975    -0.7210902831350016    0.0
    C    -1.2764685843249897    0.7010969265490357    0.0
    C    -1.249361805498564    -0.7259425605252359    0.0
    H    2.501339244973329    2.4586942183011886    0.0
    H    4.668016077144031    1.231054743537134    0.0
    H    4.622229716864998    -1.2644459704554767    0.0
    H    2.461628572014769    -2.4787667254821497    0.0
    H    -0.030129257283545346    -2.507795687320477    0.0
    H    -2.485551427985226    -2.496144649158805    0.0
    H    -4.617715970455479    -1.268959716864996    0.0
    H    -4.62660245383668    1.2150309437833386    0.0
    H    -2.4887007550266755    2.457678625359045    0.0
    H    0.05202092736971688    2.1565671563397615    -0.8641085309807137
    H    0.05213377102995487    2.1565671563397615    0.8641085309807137

