%NProcShared=8
%mem = 32GB
%Chk=check_sp_13
#n M062X/6-311++G(d,p) TD SP pop=reg formcheck
 
 SP_13

1 1
    C    2.5226282847763684    1.373066721378743    0.0
    C    3.7356986130488274    0.692775494460403    0.0
    C    3.7063695116947084    -0.6851054862535899    0.0
    C    2.4402374517849776    -1.3916544234714807    0.0
    C    -2.497582548215017    -1.4137922979072624    0.0
    C    -3.6788972096840373    -0.7295145958145263    0.0
    C    -3.684488108329913    0.6722379482970876    0.0
    C    -2.4750185186704967    1.3725332786212538    0.0
    C    0.01106893721789085    1.4676135248256055    0.0
    C    -0.04174189577349201    -1.4246633606893702    0.0
    C    1.2507504883052913    0.670659913828478    0.0
    C    1.230024505539597    -0.7206594255231836    0.0
    C    -1.278622872384079    0.7036000041034058    0.0
    C    -1.2509621337710302    -0.7263939351661879    0.0
    H    2.5024881986048433    2.4587968034468597    0.0
    H    4.671811727533855    1.2325319696347947    0.0
    H    4.622660574476816    -1.264056146901927    0.0
    H    2.4594537669265453    -2.477227948297086    0.0
    H    -0.03560730406237177    -2.507836721378746    0.0
    H    -2.487726233073449    -2.4977654944604057    0.0
    H    -4.61732614690193    -1.2693905744768135    0.0
    H    -4.622868354534258    1.2135947517439456    0.0
    H    -2.487551801395162    2.457596557242508    0.0
    H    0.06147927780057449    2.156546639310627    -0.8641700820681162
    H    0.061612638489946664    2.156546639310627    0.8641700820681162

