%NProcShared=8
%mem = 32GB
%Chk=check_sp_1
$FChk=check_sp_1
#n M062X/6-311++G(d,p) TD SP pop=reg formcheck
 
 SP_1

1 1
    C    2.5003467911366437    1.372820517029134    0.0
    C    3.7119398933114485    0.6830504226508002    0.0
    C    3.6935668855149775    -0.7054173450964301    0.0
    C    2.4667044193680754    -1.4017488018054984    0.0
    C    -2.4711155806319245    -1.4034517152236357    0.0
    C    -3.6914536315141566    -0.7088334304472713    0.0
    C    -3.7080006237176857    0.6814706114074682    0.0
    C    -2.496684501436192    1.3727794829708657    0.0
    C    0.000851456709068527    1.4667518096019696    0.0
    C    -0.003210915059499385    -1.424540258514567    0.0
    C    1.2635531144850225    0.6860476856791137    0.0
    C    1.2397495773491998    -0.723244571194091    0.0
    C    -1.2656971440295446    0.6885815387771851    0.0
    C    -1.2413601641362333    -0.723685687320476    0.0
    H    2.495594476815757    2.4581812925728355    0.0
    H    4.649037825194912    1.2236686130488303    0.0
    H    4.620075428805909    -1.2663950882232253    0.0
    H    2.4725025974558883    -2.486460611407468    0.0
    H    -0.002739023389413213    -2.507590517029134    0.0
    H    -2.4746774025441116    -2.4880404226508004    0.0
    H    -4.6196650882232255    -1.2668054288059087    0.0
    H    -4.645272950348789    1.2222119039803037    0.0
    H    -2.494445523184243    2.4580889659417315    0.0
    H    0.004729175215428807    2.156669741485433    -0.8638007755437013
    H    0.004739433729995897    2.156669741485433    0.8638007755437013

