%NProcShared=8
%mem = 32GB
%Chk=check_sp_18
#n M062X/6-311++G(d,p) TD SP pop=reg formcheck
 
 SP_18

1 1
    C    2.531912240459587    1.3731693065244137    0.0
    C    3.745598079606069    0.6968276077144042    0.0
    C    3.7117039392695963    -0.6766422117357399    0.0
    C    2.4292095486253533    -1.3874484324989733    0.0
    C    -2.508610451374639    -1.4181008740254402    0.0
    C    -3.673665367254821    -0.7381317480508826    0.0
    C    -3.6746912269183407    0.6683910053344291    0.0
    C    -2.465991025851457    1.3724306934755823    0.0
    C    0.015326220763233485    1.4679725728354536    0.0
    C    -0.05779647107098893    -1.4247146532622048    0.0
    C    1.2454160607304035    0.6642483422240465    0.0
    C    1.2259723922855958    -0.7195822814936389    0.0
    C    -1.2840085925318014    0.7098576979893311    0.0
    C    -1.2549629544521954    -0.7275223717685678    0.0
    H    2.5053605826836294    2.4590532663110363    0.0
    H    4.681300853508414    1.2362250348789465    0.0
    H    4.623737718506361    -1.2630815880180526    0.0
    H    2.454016754205986    -2.473381005334427    0.0
    H    -0.04930242100943783    -2.5079393065244173    0.0
    H    -2.493163245794006    -2.501817607714408    0.0
    H    -4.616351588018056    -1.270467718506357    0.0
    H    -4.613533106278204    1.210004271645463    0.0
    H    -2.4846794173163786    2.4573913869511648    0.0
    H    0.08512515387771852    2.1564953467377914    -0.8643239597866225
    H    0.08530980713992614    2.1564953467377914    0.8643239597866225

