%NProcShared=8
%mem = 32GB
%Chk=check_sp_10
#n M062X/6-311++G(d,p) TD SP pop=reg formcheck
 
 SP_10

1 1
    C    2.5170579113664373    1.3730051702913408    0.0
    C    3.729758933114483    0.6903442265080023    0.0
    C    3.7031688551497757    -0.6901834509643    0.0
    C    2.446854193680752    -1.3941780180549852    0.0
    C    -2.490965806319244    -1.4112071522363556    0.0
    C    -3.682036315141567    -0.7243443044727125    0.0
    C    -3.690366237176856    0.6745461140746828    0.0
    C    -2.4804350143619205    1.3725948297086568    0.0
    C    0.008514567090685269    1.4673980960196964    0.0
    C    -0.03210915059499385    -1.4246325851456694    0.0
    C    1.2539511448502243    0.6745068567911369    0.0
    C    1.2324557734919979    -0.7213057119409105    0.0
    C    -1.2753914402954452    0.6998453877718506    0.0
    C    -1.2485616413623308    -0.72571687320476    0.0
    H    2.500764768157572    2.4586429257283533    0.0
    H    4.666118251949119    1.2303161304883037    0.0
    H    4.6220142880590895    -1.2646408822322515    0.0
    H    2.4627159745588814    -2.4795361140746817    0.0
    H    -0.02739023389413213    -2.507775170291343    0.0
    H    -2.4844640254411146    -2.4953342265080045    0.0
    H    -4.617910882232254    -1.2687442880590873    0.0
    H    -4.628469503487891    1.215749039803035    0.0
    H    -2.4892752318424325    2.4577196594173136    0.0
    H    0.04729175215428807    2.1565774148543286    -0.8640777554370125
    H    0.04739433729995897    2.1565774148543286    0.8640777554370125

