%NProcShared=8
%mem = 32GB
%Chk=check_sp_20
#n M062X/6-311++G(d,p) TD SP pop=reg formcheck
 
 SP_20

1 1
    C    2.5356258227328747    1.3732103405826819    0.0
    C    3.7495578662289653    0.6984484530160047    0.0
    C    3.7138377102995515    -0.6732569019285999    0.0
    C    2.4247983873615038    -1.3857660361099704    0.0
    C    -2.5130216126384877    -1.4198243044727115    0.0
    C    -3.6715726302831344    -0.741578608945425    0.0
    C    -3.6707724743537122    0.6668522281493656    0.0
    C    -2.462380028723841    1.3723896594173137    0.0
    C    0.017029134181370538    1.468116192039393    0.0
    C    -0.0642183011899877    -1.4247351702913387    0.0
    C    1.2432822897004483    0.6616837135822738    0.0
    C    1.2243515469839954    -0.719151423881821    0.0
    C    -1.2861628805908905    0.7123607755437013    0.0
    C    -1.2565632827246616    -0.7279737464095198    0.0
    H    2.5065095363151437    2.459155851456707    0.0
    H    4.685096503898238    1.2377022609766073    0.0
    H    4.624168576118179    -1.2626917644645028    0.0
    H    2.451841949117762    -2.471842228149363    0.0
    H    -0.05478046778826426    -2.5079803405826864    0.0
    H    -2.495338050882229    -2.503438453016009    0.0
    H    -4.615961764464507    -1.2708985761181746    0.0
    H    -4.609799006975782    1.20856807960607    0.0
    H    -2.4835304636848647    2.4573093188346276    0.0
    H    0.09458350430857614    2.156474829708657    -0.8643855108740249
    H    0.09478867459991794    2.156474829708657    0.8643855108740249

