%NProcShared=8
%mem = 32GB
%Chk=check_sp_6
#n M062X/6-311++G(d,p) TD SP pop=reg formcheck
 
 SP_6

1 1
    C    2.5096307468198624    1.3729231021748045    0.0
    C    3.7218393598686896    0.6871025359048014    0.0
    C    3.6989013130898654    -0.6969540705785799    0.0
    C    2.455676516208451    -1.397542810832991    0.0
    C    -2.4821434837915466    -1.4077602913418135    0.0
    C    -3.6862217890849402    -0.7174505826836275    0.0
    C    -3.698203742306114    0.6776236684448097    0.0
    C    -2.4876570086171523    1.3726768978251942    0.0
    C    0.005108740254411162    1.467110857611818    0.0
    C    -0.01926549035699631    -1.4245915510874017    0.0
    C    1.2582186869101346    0.6796361140746822    0.0
    C    1.2356974640951988    -0.7221674271645463    0.0
    C    -1.2710828641772671    0.6948392326631103    0.0
    C    -1.2453609848173985    -0.7248141239228559    0.0
    H    2.498466860894543    2.458437755437012    0.0
    H    4.658526951169471    1.2273616782929822    0.0
    H    4.621152572835454    -1.265420529339351    0.0
    H    2.467065584735329    -2.482613668444809    0.0
    H    -0.016434140336479282    -2.5076931021748057    0.0
    H    -2.480114415264669    -2.4920925359048027    0.0
    H    -4.618690529339352    -1.2678825728354524    0.0
    H    -4.635937702092735    1.2186214238818212    0.0
    H    -2.4915731391054594    2.4578837956503885    0.0
    H    0.028375051292572846    2.1566184489125972    -0.8639546532622076
    H    0.028436602379975386    2.1566184489125972    0.8639546532622076

