%NProcShared=8
%mem = 32GB
%Chk=check_sp_17
#n M062X/6-311++G(d,p) TD SP pop=reg formcheck
 
 SP_17

1 1
    C    2.5300554493229432    1.3731487894952794    0.0
    C    3.7436181862946207    0.696017185063604    0.0
    C    3.7106370537546187    -0.67833486663931    0.0
    C    2.431415129257278    -1.3882896306934749    0.0
    C    -2.5064048707427142    -1.4172391588018047    0.0
    C    -3.6747117357406642    -0.7364083176036113    0.0
    C    -3.676650603200655    0.6691603939269608    0.0
    C    -2.467796524415265    1.3724512105047166    0.0
    C    0.014474764054164958    1.467900763233484    0.0
    C    -0.054585556011489546    -1.4247043947476379    0.0
    C    1.246482946245381    0.6655306565449327    0.0
    C    1.2267828149363962    -0.7197977102995479    0.0
    C    -1.282931448502257    0.7086061592121461    0.0
    C    -1.2541627903159625    -0.7272966844480919    0.0
    H    2.504786105867872    2.459001973738201    0.0
    H    4.679403028313502    1.235486421830116    0.0
    H    4.623522289700452    -1.2632764997948274    0.0
    H    2.4551041567500977    -2.474150393926959    0.0
    H    -0.04656339762002463    -2.507918789495283    0.0
    H    -2.4920758432498946    -2.5010071850636075    0.0
    H    -4.616546499794831    -1.2702522897004485    0.0
    H    -4.615400155929415    1.2107223676651597    0.0
    H    -2.485253894132135    2.4574324210094334    0.0
    H    0.08039597866228973    2.1565056052523586    -0.8642931842429212
    H    0.08057037340993026    2.1565056052523586    0.8642931842429212

