%NProcShared=8
%mem = 32GB
%Chk=check_sp_7
#n M062X/6-311++G(d,p) TD SP pop=reg formcheck
 
 SP_7

1 1
    C    2.511487537956506    1.3729436192039386    0.0
    C    3.723819253180138    0.6879129585556016    0.0
    C    3.699968198604843    -0.69526141567501    0.0
    C    2.4534709355765263    -1.3967016126384897    0.0
    C    -2.484349064423471    -1.408622006565449    0.0
    C    -3.685175420599097    -0.7191740131308988    0.0
    C    -3.6962443660237994    0.676854279852278    0.0
    C    -2.4858515100533443    1.37265638079606    0.0
    C    0.0059601969634796885    1.4671826672137875    0.0
    C    -0.022476405416495697    -1.4246018096019686    0.0
    C    1.257151801395157    0.6783537997537958    0.0
    C    1.2348870414443984    -0.7219519983586373    0.0
    C    -1.2721600082068116    0.6960907714402954    0.0
    C    -1.2461611489536317    -0.7250398112433319    0.0
    H    2.4990413377103002    2.4584890480098474    0.0
    H    4.660424776364383    1.2281002913418126    0.0
    H    4.621368001641363    -1.265225617562576    0.0
    H    2.465978182191217    -2.481844279852277    0.0
    H    -0.019173163725892492    -2.50771361920394    0.0
    H    -2.4812018178087802    -2.492902958555603    0.0
    H    -4.618495617562577    -1.2680980016413612    0.0
    H    -4.634070652441524    1.2179033278621245    0.0
    H    -2.4909986622897025    2.45784276159212    0.0
    H    0.03310422650800165    2.15660819039803    -0.8639854288059088
    H    0.03317603610997128    2.15660819039803    0.8639854288059088

