%NProcShared=8
%mem = 32GB
%Chk=check_sp_4
#n M062X/6-311++G(d,p) TD SP pop=reg formcheck
 
 SP_4

1 1
    C    2.5059171645465748    1.3728820681165363    0.0
    C    3.717879573245793    0.6854816906032009    0.0
    C    3.69676754205991    -0.70033938038572    0.0
    C    2.460087677472301    -1.3992252072219942    0.0
    C    -2.4777323225276975    -1.4060368608945424    0.0
    C    -3.688314526056627    -0.714003721789085    0.0
    C    -3.7021224948707427    0.679162445629873    0.0
    C    -2.491268005744768    1.3727179318834628    0.0
    C    0.003405826836274108    1.4669672384078787    0.0
    C    -0.01284366023799754    -1.4245710340582678    0.0
    C    1.2603524579400898    0.6822007427164548    0.0
    C    1.2373183093967992    -0.7225982847763642    0.0
    C    -1.268928576118178    0.6923361551087402    0.0
    C    -1.2437606565449324    -0.7243627492819039    0.0
    H    2.4973179072630285    2.4583351702913414    0.0
    H    4.654731300779648    1.2258844521953216    0.0
    H    4.6207217152236355    -1.2658103528929006    0.0
    H    2.4692403898235527    -2.4841524456298725    0.0
    H    -0.010956093557652853    -2.507652068116537    0.0
    H    -2.477939610176446    -2.4904716906032016    0.0
    H    -4.619080352892902    -1.267451715223635    0.0
    H    -4.639671801395156    1.220057615921214    0.0
    H    -2.492722092736973    2.4579658637669257    0.0
    H    0.01891670086171523    2.1566389659417315    -0.863893102174805
    H    0.01895773491998359    2.1566389659417315    0.863893102174805

