%NProcShared=8
%mem = 32GB
%Chk=check_sp_2
#n M062X/6-311++G(d,p) TD SP pop=reg formcheck
 
 SP_2

1 1
    C    2.5022035822732875    1.3728410340582682    0.0
    C    3.713919786622897    0.6838608453016004    0.0
    C    3.694633771029955    -0.70372469019286    0.0
    C    2.4644988387361506    -1.400907603610997    0.0
    C    -2.473321161263849    -1.404313430447271    0.0
    C    -3.6904072630283133    -0.7105568608945425    0.0
    C    -3.706041247435371    0.6807012228149365    0.0
    C    -2.494879002872384    1.3727589659417314    0.0
    C    0.001702913418137054    1.4668236192039392    0.0
    C    -0.00642183011899877    -1.424550517029134    0.0
    C    1.262486228970045    0.6847653713582273    0.0
    C    1.2389391546983997    -0.7230291423881821    0.0
    C    -1.266774288059089    0.6898330775543701    0.0
    C    -1.2421603282724663    -0.723911374640952    0.0
    H    2.496168953631514    2.458232585145671    0.0
    H    4.650935650389824    1.2244072260976608    0.0
    H    4.620290857611818    -1.2662001764464503    0.0
    H    2.4714151949117764    -2.4856912228149364    0.0
    H    -0.005478046778826426    -2.5076110340582685    0.0
    H    -2.475764805088223    -2.488850845301601    0.0
    H    -4.619470176446451    -1.2670208576118176    0.0
    H    -4.643405900697578    1.221493807960607    0.0
    H    -2.4938710463684863    2.458047931883463    0.0
    H    0.009458350430857614    2.156659482970866    -0.8638315510874025
    H    0.009478867459991795    2.156659482970866    0.8638315510874025

