%NProcShared=8
%mem = 32GB
%Chk=check_sp_9
#n M062X/6-311++G(d,p) TD SP pop=reg formcheck
 
 SP_9

1 1
    C    2.5152011202297935    1.3729846532622068    0.0
    C    3.7277790398030346    0.6895338038572021    0.0
    C    3.702101969634798    -0.69187610586787    0.0
    C    2.4490597743126767    -1.3950192162494868    0.0
    C    -2.4887602256873196    -1.4103454370127202    0.0
    C    -3.6830826836274104    -0.7226208740254413    0.0
    C    -3.6923256134591704    0.6753155026672145    0.0
    C    -2.4822405129257286    1.3726153467377913    0.0
    C    0.007663110381616742    1.4673262864177268    0.0
    C    -0.028898235535494466    -1.4246223266311024    0.0
    C    1.2550180303652019    0.6757891711120232    0.0
    C    1.233266196142798    -0.7215211407468195    0.0
    C    -1.2743142962659006    0.6985938489946656    0.0
    C    -1.2477614772260979    -0.725491185884284    0.0
    H    2.5001902913418146    2.458591633155518    0.0
    H    4.664220426754207    1.2295775174394732    0.0
    H    4.621798859253181    -1.2648357940090265    0.0
    H    2.4638033771029932    -2.480305502667213    0.0
    H    -0.024651210504718916    -2.5077546532622086    0.0
    H    -2.483376622897003    -2.494523803857204    0.0
    H    -4.618105794009028    -1.2685288592531785    0.0
    H    -4.630336553139102    1.2164671358227317    0.0
    H    -2.489849708658189    2.4577606934755827    0.0
    H    0.04256257693885926    2.156587673368896    -0.8640469798933113
    H    0.04265490356996307    2.156587673368896    0.8640469798933113

