%NProcShared=8
%mem = 32GB
%Chk=check_sp_15
#n M062X/6-311++G(d,p) TD SP pop=reg formcheck
 
 SP_15

1 1
    C    2.526341867049656    1.3731077554370112    0.0
    C    3.739658399671724    0.6943963397620034    0.0
    C    3.7085032827246636    -0.68172017644645    0.0
    C    2.4358262905211276    -1.3899720270824778    0.0
    C    -2.5019937094788656    -1.4155157283545334    0.0
    C    -3.676804472712351    -0.7329614567090688    0.0
    C    -3.680569355765284    0.6706991711120243    0.0
    C    -2.4714075215428806    1.3724922445629852    0.0
    C    0.012771850636027903    1.4677571440295447    0.0
    C    -0.04816372589249077    -1.424683877718504    0.0
    C    1.2486167172753362    0.6680952851867054    0.0
    C    1.2284036602379966    -0.7202285679113658    0.0
    C    -1.280777160443168    0.7061030816577759    0.0
    C    -1.2525624620434963    -0.7268453098071399    0.0
    H    2.5036371522363576    2.4588993885925303    0.0
    H    4.675607377923679    1.2340091957324555    0.0
    H    4.623091432088635    -1.2636663233483771    0.0
    H    2.4572789618383215    -2.4756891711120224    0.0
    H    -0.041085350841198194    -2.5078777554370144    0.0
    H    -2.4899010381616717    -2.499386339762007    0.0
    H    -4.616936323348381    -1.269821432088631    0.0
    H    -4.619134255231837    1.2121585597045526    0.0
    H    -2.4864028477636486    2.4575144891259706    0.0
    H    0.0709376282314321    2.156526122281493    -0.8642316331555188
    H    0.07109150594993846    2.156526122281493    0.8642316331555188

