%NProcShared=8
%mem = 32GB
%Chk=check_sp_14
#n M062X/6-311++G(d,p) TD SP pop=reg formcheck
 
 SP_14

1 1
    C    2.524485075913012    1.3730872384078772    0.0
    C    3.7376785063602758    0.6935859171112032    0.0
    C    3.707436397209686    -0.68341283135002    0.0
    C    2.4380318711530524    -1.3908132252769794    0.0
    C    -2.4997881288469412    -1.414654013130898    0.0
    C    -3.677850841198194    -0.7312380262617976    0.0
    C    -3.6825287320475986    0.6714685597045559    0.0
    C    -2.4732130201066886    1.3725127615921195    0.0
    C    0.011920393926959377    1.467685334427575    0.0
    C    -0.044952810832991394    -1.424673619203937    0.0
    C    1.2496836027903138    0.6693775995075917    0.0
    C    1.2292140828887967    -0.7204439967172747    0.0
    C    -1.2797000164136234    0.7048515428805908    0.0
    C    -1.2517622979072631    -0.7266196224866639    0.0
    H    2.5030626754206007    2.458848096019695    0.0
    H    4.673709552728767    1.233270582683625    0.0
    H    4.622876003282725    -1.2638612351251521    0.0
    H    2.4583663643824334    -2.4764585597045543    0.0
    H    -0.038346327451784984    -2.50785723840788    0.0
    H    -2.4888136356175603    -2.4985759171112063    0.0
    H    -4.617131235125155    -1.269606003282722    0.0
    H    -4.621001304883047    1.2128766557242492    0.0
    H    -2.4869773245794056    2.457555523184239    0.0
    H    0.0662084530160033    2.15653638079606    -0.8642008576118175
    H    0.06635207221994256    2.15653638079606    0.8642008576118175

