%NProcShared=8
%mem = 32GB
%Chk=check_sp_12
#n M062X/6-311++G(d,p) TD SP pop=reg formcheck
 
 SP_12

1 1
    C    2.5207714936397245    1.373046204349609    0.0
    C    3.733718719737379    0.6919650718096028    0.0
    C    3.705302626179731    -0.68679814115716    0.0
    C    2.4424430324169024    -1.3924956216659823    0.0
    C    -2.4953769675830926    -1.412930582683627    0.0
    C    -3.6799435781698806    -0.7277911653672551    0.0
    C    -3.6864474846122275    0.6730073368896193    0.0
    C    -2.4768240172343043    1.3725537956503882    0.0
    C    0.010217480508822324    1.4675417152236359    0.0
    C    -0.03853098071399262    -1.4246531021748032    0.0
    C    1.251817373820269    0.6719422281493643    0.0
    C    1.2308349281903972    -0.7208748543290926    0.0
    C    -1.2775457283545344    0.7023484653262207    0.0
    C    -1.250161969634797    -0.7261682478457119    0.0
    H    2.5019137217890863    2.4587455108740244    0.0
    H    4.669913902338943    1.2317933565859644    0.0
    H    4.622445145670907    -1.2642510586787017    0.0
    H    2.460541169470657    -2.4779973368896178    0.0
    H    -0.032868280672958564    -2.5078162043496115    0.0
    H    -2.4866388305293374    -2.496955071809605    0.0
    H    -4.6175210586787045    -1.2691751456709048    0.0
    H    -4.624735404185469    1.214312847763642    0.0
    H    -2.488126278210919    2.4576375913007764    0.0
    H    0.05675010258514569    2.1565568978251943    -0.864139306524415
    H    0.05687320475995077    2.1565568978251943    0.864139306524415

