%NProcShared=8
%mem = 32GB
%Chk=check_sp_16
#n M062X/6-311++G(d,p) TD SP pop=reg formcheck
 
 SP_16

1 1
    C    2.5281986581862994    1.3731282724661453    0.0
    C    3.7416382929831724    0.6952067624128037    0.0
    C    3.709570168239641    -0.6800275215428799    0.0
    C    2.433620709889203    -1.3891308288879762    0.0
    C    -2.50419929011079    -1.416377443578169    0.0
    C    -3.6757581042265075    -0.7346848871563401    0.0
    C    -3.6786099794829696    0.6699297825194925    0.0
    C    -2.469602022979073    1.372471727533851    0.0
    C    0.013623307345096432    1.4678289536315143    0.0
    C    -0.05137464095199016    -1.424694136233071    0.0
    C    1.2475498317603586    0.666812970865819    0.0
    C    1.2275932375871963    -0.7200131391054568    0.0
    C    -1.2818543044727124    0.707354620434961    0.0
    C    -1.2533626261797293    -0.7270709971276159    0.0
    H    2.504211629052115    2.4589506811653656    0.0
    H    4.67750520311859    1.2347478087812858    0.0
    H    4.623306860894544    -1.2634714115716024    0.0
    H    2.4561915592942096    -2.4749197825194904    0.0
    H    -0.04382437423061141    -2.5078982724661487    0.0
    H    -2.490988440705783    -2.5001967624128074    0.0
    H    -4.616741411571606    -1.2700368608945396    0.0
    H    -4.617267205580626    1.2114404636848561    0.0
    H    -2.485828370947892    2.457473455067702    0.0
    H    0.07566680344686091    2.1565158637669257    -0.86426240869922
    H    0.07583093967993436    2.1565158637669257    0.86426240869922

