%NProcShared=8
%mem = 32GB
%Chk=check_sp_3
#n M062X/6-311++G(d,p) TD SP pop=reg formcheck
 
 SP_3

1 1
    C    2.504060373409931    1.3728615510874023    0.0
    C    3.715899679934345    0.6846712679524006    0.0
    C    3.6957006565449326    -0.70203203528929    0.0
    C    2.462293258104226    -1.4000664054164955    0.0
    C    -2.475526741895773    -1.4051751456709067    0.0
    C    -3.68936089454247    -0.7122802913418138    0.0
    C    -3.7040818711530568    0.6799318342224048    0.0
    C    -2.493073504308576    1.372738448912597    0.0
    C    0.002554370127205581    1.4668954288059088    0.0
    C    -0.009632745178498155    -1.4245607755437009    0.0
    C    1.2614193434550673    0.683483057037341    0.0
    C    1.2381287320475993    -0.7228137135822732    0.0
    C    -1.2678514320886336    0.6910846163315552    0.0
    C    -1.2429604924086994    -0.724137061961428    0.0
    H    2.4967434304472715    2.458283877718506    0.0
    H    4.652833475584736    1.2251458391464911    0.0
    H    4.620506286417727    -1.2660052646696756    0.0
    H    2.4703277923676645    -2.4849218342224044    0.0
    H    -0.008217070168239641    -2.5076315510874028    0.0
    H    -2.4768522076323345    -2.489661267952401    0.0
    H    -4.619275264669676    -1.2672362864177262    0.0
    H    -4.641538851046367    1.2207757119409106    0.0
    H    -2.4932965695527294    2.4580068978251943    0.0
    H    0.014187525646286423    2.1566492244562987    -0.8638623266311037
    H    0.014218301189987693    2.1566492244562987    0.8638623266311037

