%NProcShared=16
%mem = 64GB
%Chk=check_sp_0
#n M062X/cc-pvtz TD EmpiricalDispersion=GD3 SP
 
 SP_-5

1 1
    C    2.4927    1.3291    -0.085
    C    3.7015    0.6807    -0.015
    C    3.6839    -0.6900999999999999    0.0
    C    2.4632    -1.4289    0.1
    C    -2.4632    -1.3689    0.1
    C    -3.6839    -0.7201    0.0
    C    -3.7015    0.6807    -0.015
    C    -2.4927    1.4091    -0.085
    C    0.0    1.4621    -0.165
    C    0.0    -1.4205    0.135
    C    1.2621    0.6657    -0.04
    C    1.2375    -0.7371    0.065
    C    -1.2621    0.7057    -0.04
    C    -1.2375    -0.7071    0.065
    H    2.4881    2.3823000000000003    -0.09
    H    4.6368    1.1754    0.06
    H    4.6093    -1.2937    -0.07
    H    2.4675    -2.5713999999999997    0.10500000000000001
    H    0.0    -2.5016    0.14
    H    -2.4675    -2.3914    0.10500000000000001
    H    -4.6093    -1.2337    -0.07
    H    -4.6368    1.2653999999999999    0.06
    H    -2.4881    2.5223    -0.09
    H    0.01    2.1545    -1.0096
    H    -0.01    2.1545    0.7096

