%NProcShared=16
%mem = 64GB
#n M062X/6-311++G(d,p) TD(NStates=1) EmpiricalDispersion=GD3 SP
 
 SP_-5

1 1
    C    2.4927    1.2641    0.015
    C    3.7015    0.5507    -0.005
    C    3.6839    -0.8351    -0.005
    C    2.4632    -1.5039    -0.02
    C    -2.4632    -1.2939    -0.02
    C    -3.6839    -0.5751    -0.005
    C    -3.7015    0.8107    -0.005
    C    -2.4927    1.4741    0.015
    C    0.0    1.4621    0.04
    C    0.0    -1.4205    -0.035
    C    1.2621    0.6207    0.005
    C    1.2375    -0.7870999999999999    0.005
    C    -1.2621    0.7506999999999999    0.005
    C    -1.2375    -0.6571    0.005
    H    2.4881    2.3423000000000003    0.015
    H    4.6368    1.1004    -0.025
    H    4.6093    -1.3837000000000002    0.015
    H    2.4675    -2.6014    -0.02
    H    0.0    -2.5016    -0.035
    H    -2.4675    -2.3613999999999997    -0.02
    H    -4.6093    -1.1437    0.015
    H    -4.6368    1.3403999999999998    -0.025
    H    -2.4881    2.5623    0.015
    H    -0.005    2.1545    -0.8246
    H    0.005    2.1545    0.8946000000000001

