%NProcShared=16
%mem = 64GB
#n M062X/6-311++G(d,p) TD(NStates=1) EmpiricalDispersion=GD3 SP
 
 SP_-4

1 1
    C    2.4927    1.2851    0.012
    C    3.7015    0.5767    -0.004
    C    3.6839    -0.8090999999999999    -0.004
    C    2.4632    -1.4829    -0.016
    C    -2.4632    -1.3149    -0.016
    C    -3.6839    -0.6011    -0.004
    C    -3.7015    0.7847    -0.004
    C    -2.4927    1.4531    0.012
    C    0.0    1.4621    0.032
    C    0.0    -1.4205    -0.028000000000000004
    C    1.2621    0.6336999999999999    0.004
    C    1.2375    -0.7741    0.004
    C    -1.2621    0.7377    0.004
    C    -1.2375    -0.6700999999999999    0.004
    H    2.4881    2.3643    0.012
    H    4.6368    1.1243999999999998    -0.02
    H    4.6093    -1.3597000000000001    0.012
    H    2.4675    -2.5774    -0.016
    H    0.0    -2.5016    -0.028000000000000004
    H    -2.4675    -2.3853999999999997    -0.016
    H    -4.6093    -1.1677    0.012
    H    -4.6368    1.3164    -0.02
    H    -2.4881    2.5403000000000002    0.012
    H    -0.004    2.1545    -0.8316
    H    0.004    2.1545    0.8876000000000001

