%NProcShared=16
%mem = 64GB
%Chk=check_sp_4
#n M062X/cc-pvtz TD EmpiricalDispersion=GD3 SP
 
 SP_-4

1 1
    C    2.47654    1.36812    0.0
    C    3.67948    0.6683500000000002    -0.0
    C    3.6811100000000008    -0.7253600000000004    0.0
    C    2.48591    -1.4140700000000002    0.0
    C    -2.4401600000000006    -1.3845199999999995    0.0
    C    -3.68964    -0.6903999999999998    0.0
    C    -3.7290799999999993    0.6893799999999998    0.0
    C    -2.5181499999999986    1.3673199999999999    0.0
    C    -0.014070000000000003    1.4707300000000005    0.0
    C    0.03532    -1.4199700000000004    0.0
    C    1.2651999999999997    0.6958399999999998    -0.0
    C    1.2532100000000002    -0.7233700000000002    0.0
    C    -1.2604200000000003    0.6774600000000001    0.0
    C    -1.2206199999999998    -0.7183199999999998    0.0
    H    2.48693    2.45099    0.0
    H    4.614090000000001    1.2103000000000002    0.0
    H    4.6171500000000005    -1.2652800000000006    0.0
    H    2.477100000000001    -2.496190000000001    0.0
    H    0.03225    -2.50094    -0.0
    H    -2.4544499999999996    -2.4673    0.0
    H    -4.602309999999999    -1.2702599999999997    0.0
    H    -4.666300000000001    1.2248400000000006    0.0
    H    -2.5018600000000006    2.4505999999999997    0.0
    H    -0.043140000000000005    2.15764    -0.8614700000000004
    H    -0.04308999999999999    2.15764    0.8614700000000004

