%NProcShared=16
%mem = 64GB
%Chk=check_sp_2
#n M062X/cc-pvtz TD EmpiricalDispersion=GD3 SP
 
 SP_-2

1 1
    C    2.47872    1.3686    0.0
    C    3.68274    0.6708100000000001    -0.0
    C    3.6805100000000004    -0.7219400000000002    0.0
    C    2.48239    -1.4111500000000001    0.0
    C    -2.4439200000000003    -1.3872599999999997    0.0
    C    -3.68938    -0.6920399999999999    0.0
    C    -3.7239799999999996    0.6883799999999999    0.0
    C    -2.513229999999999    1.3676    0.0
    C    -0.011410000000000002    1.4685900000000003    0.0
    C    0.02984    -1.4203500000000002    0.0
    C    1.2655599999999998    0.6945999999999999    -0.0
    C    1.25015    -0.7231900000000001    0.0
    C    -1.2595200000000002    0.67776    0.0
    C    -1.2238799999999999    -0.7194799999999999    0.0
    H    2.48651    2.45153    0.0
    H    4.61767    1.21212    0.0
    H    4.61481    -1.2649000000000004    0.0
    H    2.4758200000000006    -2.4932900000000005    0.0
    H    0.027370000000000002    -2.50134    -0.0
    H    -2.4571899999999998    -2.47002    0.0
    H    -4.604509999999999    -1.2678399999999999    0.0
    H    -4.66044    1.2251400000000003    0.0
    H    -2.4981600000000004    2.4508799999999997    0.0
    H    -0.03756    2.15656    -0.8610700000000002
    H    -0.037529999999999994    2.15656    0.8610700000000002

