%NProcShared=16
%mem = 64GB
%Chk=check_sp_3
#n M062X/cc-pvtz TD EmpiricalDispersion=GD3 SP
 
 SP_-3

1 1
    C    2.47763    1.36836    0.0
    C    3.68111    0.6695800000000002    -0.0
    C    3.6808100000000006    -0.7236500000000003    0.0
    C    2.48415    -1.4126100000000001    0.0
    C    -2.4420400000000004    -1.3858899999999996    0.0
    C    -3.68951    -0.6912199999999998    0.0
    C    -3.7265299999999995    0.6888799999999998    0.0
    C    -2.515689999999999    1.36746    0.0
    C    -0.012740000000000001    1.4696600000000004    0.0
    C    0.03258    -1.4201600000000003    0.0
    C    1.2653799999999997    0.6952199999999998    -0.0
    C    1.2516800000000001    -0.7232800000000001    0.0
    C    -1.2599700000000003    0.67761    0.0
    C    -1.2222499999999998    -0.7188999999999999    0.0
    H    2.48672    2.45126    0.0
    H    4.615880000000001    1.2112100000000001    0.0
    H    4.61598    -1.2650900000000005    0.0
    H    2.4764600000000008    -2.4947400000000006    0.0
    H    0.029810000000000003    -2.50114    -0.0
    H    -2.4558199999999997    -2.46866    0.0
    H    -4.603409999999999    -1.2690499999999998    0.0
    H    -4.6633700000000005    1.2249900000000005    0.0
    H    -2.5000100000000005    2.4507399999999997    0.0
    H    -0.040350000000000004    2.1571    -0.8612700000000003
    H    -0.04030999999999999    2.1571    0.8612700000000003

