%NProcShared=16
%mem = 64GB
%Chk=check_sp_5
#n M062X/cc-pvtz TD EmpiricalDispersion=GD3 SP
 
 SP_5

1 1
    C    2.5206099999999982    1.3671799999999998    -0.0
    C    3.731629999999999    0.6898799999999997    0.0
    C    3.6897699999999998    -0.6895799999999997    0.0
    C    2.4382800000000007    -1.3831499999999994    -0.0
    C    -2.4877300000000004    -1.4155300000000002    -0.0
    C    -3.681410000000001    -0.7270700000000005    -0.0
    C    -3.67785    0.6671200000000003    0.0
    C    -2.47545    1.36788    0.0
    C    0.015400000000000004    1.4718000000000007    -0.0
    C    -0.03806    -1.4197800000000005    0.0
    C    1.2608700000000004    0.6773100000000001    0.0
    C    1.2189899999999998    -0.7177399999999998    0.0
    C    -1.2650199999999996    0.6964599999999997    0.0
    C    -1.2547400000000002    -0.7234600000000002    0.0
    H    2.5037100000000008    2.4504599999999996    0.0
    H    4.669169999999998    1.2246900000000007    0.0
    H    4.601209999999999    -1.2714699999999997    0.0
    H    2.4530799999999995    -2.46594    -0.0
    H    -0.03463000000000001    -2.50074    0.0
    H    -2.477740000000001    -2.497640000000001    -0.0
    H    -4.618320000000001    -1.2654700000000008    -0.0
    H    -4.612360000000004    1.2094400000000005    0.0
    H    -2.48714    2.45072    0.0
    H    0.04586999999999999    2.1581799999999998    -0.8616700000000005
    H    0.04586999999999999    2.1581799999999998    0.8616700000000005

