%NProcShared=16
%mem = 64GB
%Chk=check_sp_1
#n M062X/cc-pvtz TD EmpiricalDispersion=GD3 SP
 
 SP_-1

1 1
    C    2.47981    1.36884    0.0
    C    3.68437    0.6720400000000001    -0.0
    C    3.68021    -0.7202300000000001    0.0
    C    2.48063    -1.40969    0.0
    C    -2.4458    -1.3886299999999998    0.0
    C    -3.68925    -0.6928599999999999    0.0
    C    -3.72143    0.6878799999999999    0.0
    C    -2.5107699999999995    1.36774    0.0
    C    -0.010080000000000002    1.4675200000000002    0.0
    C    0.0271    -1.4205400000000001    0.0
    C    1.2657399999999999    0.6939799999999999    -0.0
    C    1.24862    -0.7231000000000001    0.0
    C    -1.2590700000000001    0.67791    0.0
    C    -1.2255099999999999    -0.7200599999999999    0.0
    H    2.4863    2.4518    0.0
    H    4.61946    1.21303    0.0
    H    4.61364    -1.2647100000000002    0.0
    H    2.4751800000000004    -2.4918400000000003    0.0
    H    0.02493    -2.50154    -0.0
    H    -2.45856    -2.47138    0.0
    H    -4.6056099999999995    -1.26663    0.0
    H    -4.65751    1.2252900000000002    0.0
    H    -2.4963100000000003    2.4510199999999998    0.0
    H    -0.03477    2.15602    -0.8608700000000001
    H    -0.034749999999999996    2.15602    0.8608700000000001

