%NProcShared=16
%mem = 64GB
%Chk=check_sp_0
#n M062X/cc-pvtz TD EmpiricalDispersion=GD3 SP
 
 SP_-0

1 1
    C    2.4809    1.36908    0.0
    C    3.686    0.67327    -0.0
    C    3.67991    -0.71852    0.0
    C    2.47887    -1.40823    0.0
    C    -2.44768    -1.39    0.0
    C    -3.68912    -0.69368    0.0
    C    -3.71888    0.68738    0.0
    C    -2.50831    1.36788    0.0
    C    -0.00875    1.46645    0.0
    C    0.02436    -1.42073    0.0
    C    1.26592    0.69336    -0.0
    C    1.24709    -0.72301    0.0
    C    -1.25862    0.67806    0.0
    C    -1.22714    -0.72064    0.0
    H    2.48609    2.45207    0.0
    H    4.62125    1.21394    0.0
    H    4.61247    -1.26452    0.0
    H    2.47454    -2.49039    0.0
    H    0.02249    -2.50174    -0.0
    H    -2.45993    -2.47274    0.0
    H    -4.60671    -1.26542    0.0
    H    -4.65458    1.22544    0.0
    H    -2.49446    2.45116    0.0
    H    -0.03198    2.15548    -0.86067
    H    -0.03197    2.15548    0.86067

