%NProcShared=16
%mem = 64GB
%Chk=check_sp_6
#n M062X/cc-pvtz TD EmpiricalDispersion=GD3 SP
 
 SP_6

1 1
    C    2.523069999999998    1.3670399999999998    -0.0
    C    3.734179999999999    0.6903799999999997    0.0
    C    3.6898999999999997    -0.6887599999999997    0.0
    C    2.436400000000001    -1.3817799999999993    -0.0
    C    -2.4895000000000005    -1.4169900000000002    -0.0
    C    -3.681710000000001    -0.7287800000000006    -0.0
    C    -3.67622    0.6658900000000003    0.0
    C    -2.47436    1.36764    0.0
    C    0.016730000000000002    1.4728700000000008    -0.0
    C    -0.040799999999999996    -1.4195900000000006    0.0
    C    1.2613200000000004    0.6771600000000001    0.0
    C    1.2173599999999998    -0.7171599999999998    0.0
    C    -1.2648399999999995    0.6970799999999997    0.0
    C    -1.2562700000000002    -0.7235500000000002    0.0
    H    2.505560000000001    2.4503199999999996    0.0
    H    4.672089999999997    1.2245400000000009    0.0
    H    4.600109999999999    -1.2726799999999996    0.0
    H    2.4517099999999994    -2.4645799999999998    -0.0
    H    -0.03706000000000001    -2.50054    0.0
    H    -2.4783800000000014    -2.499090000000001    -0.0
    H    -4.619490000000001    -1.265660000000001    -0.0
    H    -4.610580000000005    1.2085400000000006    0.0
    H    -2.48735    2.45045    0.0
    H    0.048649999999999985    2.1587199999999998    -0.8618700000000006
    H    0.048649999999999985    2.1587199999999998    0.8618700000000006

