%NProcShared=32
%mem = 128GB
#n M062X/6-311++G(d,p) TD(NStates=1) EmpiricalDispersion=GD3 SP
 
 SP_25

1 1
    C    2.4907    1.3688    0.0
    C    3.6981    0.6786749999999999    0.0
    C    3.6832000000000003    -0.70895    0.0
    C    2.467175    -1.401325    0.0
    C    -2.4593750000000005    -1.3967749999999999    0.0
    C    -3.6855    -0.70275    0.0
    C    -3.706325    0.6821999999999999    0.0
    C    -2.49755    1.3685    0.0
    C    -0.0022250000000000004    1.4654    0.0
    C    0.0060999999999999995    -1.42065    0.0
    C    1.263125    0.68765    0.0
    C    1.2397    -0.722175    0.0
    C    -1.2612999999999999    0.6838249999999999    0.0
    C    -1.2347000000000001    -0.7215750000000001    0.0
    H    2.4886999999999997    2.451925    0.0
    H    4.6335    1.2184    0.0
    H    4.61025    -1.264525    0.0
    H    2.4691    -2.483725    0.0
    H    0.005625    -2.5016749999999996    0.0
    H    -2.4654499999999997    -2.4793000000000003    0.0
    H    -4.6088000000000005    -1.26475    0.0
    H    -4.641825000000001    1.2212749999999999    0.0
    H    -2.4908    2.4517    0.0
    H    -0.008    2.1552499999999997    -0.860425
    H    -0.008    2.1552499999999997    0.860425

