%NProcShared=32
%mem = 128GB
#n M062X/6-311++G(d,p) TD(NStates=1) EmpiricalDispersion=GD3 SP
 
 SP_25

1 1
    C    2.5025    1.3688    0.0
    C    3.7135999999999996    0.686075    0.0
    C    3.6872    -0.6955499999999999    0.0
    C    2.4514750000000003    -1.3920250000000003    0.0
    C    -2.474875    -1.405675    0.0
    C    -3.6803    -0.7141500000000001    0.0
    C    -3.688925    0.6755    0.0
    C    -2.48195    1.3697    0.0
    C    0.006575    1.461    0.0
    C    -0.018299999999999997    -1.42045    0.0
    C    1.259325    0.6799499999999999    0.0
    C    1.2301000000000002    -0.7212749999999999    0.0
    C    -1.2648000000000001    0.691425    0.0
    C    -1.2450999999999999    -0.7230749999999999    0.0
    H    2.4907000000000004    2.4521249999999997    0.0
    H    4.649000000000001    1.2248999999999999    0.0
    H    4.60705    -1.263725    0.0
    H    2.4620999999999995    -2.474725    0.0
    H    -0.016875    -2.501575    0.0
    H    -2.4730499999999997    -2.4879999999999995    0.0
    H    -4.6114    -1.26305    0.0
    H    -4.624025    1.216275    0.0
    H    -2.4844    2.4528000000000003    0.0
    H    0.024    2.15425    -0.8593250000000001
    H    0.024    2.15425    0.8593250000000001

