%NProcShared=32
%mem = 128GB
#n M062X/6-311++G(d,p) TD(NStates=1) EmpiricalDispersion=GD3 SP
 
 SP_0

1 1
    C    2.50155    1.3691    0.0
    C    3.713125    0.6862499999999999    0.0
    C    3.6869    -0.69505    0.0
    C    2.4514250000000004    -1.391925    0.0
    C    -2.474825    -1.4055750000000002    0.0
    C    -3.68    -0.7136499999999999    0.0
    C    -3.6884499999999996    0.6756749999999999    0.0
    C    -2.481    1.37    0.0
    C    0.0066    1.4588    0.0
    C    -0.0183    -1.42035    0.0
    C    1.25925    0.6799249999999999    0.0
    C    1.2303    -0.721425    0.0
    C    -1.264725    0.6913999999999999    0.0
    C    -1.2453    -0.7232249999999999    0.0
    H    2.4896000000000003    2.4524500000000002    0.0
    H    4.6484250000000005    1.225275    0.0
    H    4.6069    -1.2631000000000001    0.0
    H    2.4622499999999996    -2.4746499999999996    0.0
    H    -0.016875    -2.5015249999999996    0.0
    H    -2.4731999999999994    -2.4879249999999997    0.0
    H    -4.61125    -1.262425    0.0
    H    -4.62345    1.2166499999999998    0.0
    H    -2.4833000000000003    2.453125    0.0
    H    0.024    2.15375    -0.8587750000000001
    H    0.024    2.15375    0.8587750000000001

