%NProcShared=32
%mem = 128GB
#n M062X/6-311++G(d,p) TD(NStates=1) EmpiricalDispersion=GD3 SP
 
 SP_50

1 1
    C    2.5064    1.3685    0.0
    C    3.71795    0.6877500000000001    0.0
    C    3.6884999999999994    -0.6927    0.0
    C    2.4476    -1.3898000000000001    0.0
    C    -2.4787999999999997    -1.4080000000000001    0.0
    C    -3.6792999999999996    -0.7175    0.0
    C    -3.6850499999999995    0.6736500000000001    0.0
    C    -2.479    1.3697    0.0
    C    0.00875    1.4621    0.0
    C    -0.024399999999999998    -1.4205    0.0
    C    1.2584499999999998    0.6780499999999999    0.0
    C    1.2275    -0.7208999999999999    0.0
    C    -1.2657500000000002    0.6933499999999999    0.0
    C    -1.2475    -0.7233    0.0
    H    2.4923    2.4518500000000003    0.0
    H    4.653449999999999    1.22615    0.0
    H    4.606400000000001    -1.26415    0.0
    H    2.4602000000000004    -2.47255    0.0
    H    -0.0225    -2.5016    0.0
    H    -2.4748    -2.4902499999999996    0.0
    H    -4.6122    -1.26325    0.0
    H    -4.620149999999999    1.2146499999999998    0.0
    H    -2.4839    2.4527500000000004    0.0
    H    0.032    2.1545000000000005    -0.8595999999999999
    H    0.032    2.1545000000000005    0.8595999999999999

