%NProcShared=32
%mem = 128GB
#n M062X/6-311++G(d,p) TD(NStates=1) EmpiricalDispersion=GD3 SP
 
 SP_50

1 1
    C    2.50345    1.3685    0.0
    C    3.714075    0.6859000000000001    0.0
    C    3.6874999999999996    -0.6960500000000001    0.0
    C    2.451525    -1.392125    0.0
    C    -2.474925    -1.4057750000000002    0.0
    C    -3.6805999999999996    -0.71465    0.0
    C    -3.6893999999999996    0.6753250000000001    0.0
    C    -2.4829    1.3694    0.0
    C    0.00655    1.4632    0.0
    C    -0.018299999999999997    -1.42055    0.0
    C    1.2593999999999999    0.679975    0.0
    C    1.2299    -0.7211249999999999    0.0
    C    -1.264875    0.69145    0.0
    C    -1.2449000000000001    -0.722925    0.0
    H    2.4918    2.4518    0.0
    H    4.649575    1.224525    0.0
    H    4.607200000000001    -1.26435    0.0
    H    2.4619500000000003    -2.4748    0.0
    H    -0.016875    -2.5016249999999998    0.0
    H    -2.4729    -2.488075    0.0
    H    -4.61155    -1.263675    0.0
    H    -4.624599999999999    1.2159    0.0
    H    -2.4855    2.4524750000000006    0.0
    H    0.024    2.1547500000000004    -0.859875
    H    0.024    2.1547500000000004    0.859875

