%NProcShared=32
%mem = 128GB
#n M062X/6-311++G(d,p) TD(NStates=1) EmpiricalDispersion=GD3 SP
 
 SP_-75

1 1
    C    2.49575    1.37    0.0
    C    3.7078249999999993    0.6849249999999999    0.0
    C    3.685    -0.6968999999999999    0.0
    C    2.4552000000000005    -1.3939500000000005    0.0
    C    -2.4708    -1.4030500000000004    0.0
    C    -3.6804    -0.7092999999999999    0.0
    C    -3.6913749999999994    0.6778749999999999    0.0
    C    -2.48205    1.3706    0.0
    C    0.0044750000000000015    1.4533    0.0
    C    -0.012200000000000003    -1.4201000000000001    0.0
    C    1.259975    0.6817749999999998    0.0
    C    1.2333    -0.7220999999999999    0.0
    C    -1.263625    0.6894249999999998    0.0
    C    -1.2432999999999998    -0.7232999999999999    0.0
    H    2.4858000000000007    2.453375    0.0
    H    4.642825    1.2247749999999997    0.0
    H    4.6072500000000005    -1.261425    0.0
    H    2.4644499999999994    -2.4766749999999993    0.0
    H    -0.01125    -2.5013999999999994    0.0
    H    -2.4717499999999992    -2.485524999999999    0.0
    H    -4.610150000000001    -1.2609750000000002    0.0
    H    -4.626175    1.2190249999999998    0.0
    H    -2.4816000000000007    2.453825    0.0
    H    0.016    2.1525000000000003    -0.8574
    H    0.016    2.1525000000000003    0.8574

