%NProcShared=32
%mem = 128GB
#n M062X/6-311++G(d,p) TD(NStates=1) EmpiricalDispersion=GD3 SP
 
 SP_100

1 1
    C    2.51715    1.3679    0.0
    C    3.730525    0.69295    0.0
    C    3.6921    -0.6836499999999999    0.0
    C    2.435925    -1.383025    0.0
    C    -2.490525    -1.4148749999999999    0.0
    C    -3.676    -0.72705    0.0
    C    -3.6729499999999997    0.668275    0.0
    C    -2.4692    1.37    0.0
    C    0.0153    1.4632    0.0
    C    -0.0427    -1.42055    0.0
    C    1.25575    0.6723250000000001    0.0
    C    1.2199    -0.719925    0.0
    C    -1.2685250000000001    0.6990999999999999    0.0
    C    -1.2549000000000001    -0.7241249999999999    0.0
    H    2.496    2.45135    0.0
    H    4.666225000000001    1.230275    0.0
    H    4.6043    -1.2648000000000001    0.0
    H    2.45465    -2.46595    0.0
    H    -0.039375    -2.5016249999999998    0.0
    H    -2.4801999999999995    -2.496925    0.0
    H    -4.61445    -1.2632249999999998    0.0
    H    -4.60795    1.2101499999999998    0.0
    H    -2.4813    2.4529250000000005    0.0
    H    0.056    2.15475    -0.8598750000000001
    H    0.056    2.15475    0.8598750000000001

