%NProcShared=32
%mem = 128GB
#n M062X/6-311++G(d,p) TD(NStates=1) EmpiricalDispersion=GD3 SP
 
 SP_-25

1 1
    C    2.47405    1.3694    0.0
    C    3.677775    0.669775    0.0
    C    3.6776    -0.7247000000000001    0.0
    C    2.4867    -1.4127499999999997    0.0
    C    -2.4399    -1.38545    0.0
    C    -3.6914    -0.6874999999999999    0.0
    C    -3.727125    0.690925    0.0
    C    -2.51515    1.3676    0.0
    C    -0.013175000000000001    1.4665    0.0
    C    0.0366    -1.4207    0.0
    C    1.267725    0.697225    0.0
    C    1.2521    -0.7236    0.0
    C    -1.256775    0.6742750000000001    0.0
    C    -1.2221000000000002    -0.72    0.0
    H    2.484    2.4523250000000005    0.0
    H    4.612975    1.211025    0.0
    H    4.61395    -1.264275    0.0
    H    2.47815    -2.494825    0.0
    H    0.03375    -2.5017    0.0
    H    -2.4562500000000003    -2.468275    0.0
    H    -4.60525    -1.265625    0.0
    H    -4.662925    1.228275    0.0
    H    -2.4966    2.4509749999999997    0.0
    H    -0.048    2.1555    -0.8607
    H    -0.048    2.1555    0.8607

