%NProcShared=32
%mem = 128GB
#n M062X/6-311++G(d,p) TD(NStates=1) EmpiricalDispersion=GD3 SP
 
 SP_-25

1 1
    C    2.49765    1.3694    0.0
    C    3.7087749999999997    0.6845749999999999    0.0
    C    3.6856    -0.6979    0.0
    C    2.4553000000000003    -1.39415    0.0
    C    -2.4709    -1.4032500000000003    0.0
    C    -3.681    -0.7102999999999998    0.0
    C    -3.6923249999999994    0.6775249999999999    0.0
    C    -2.48395    1.37    0.0
    C    0.004425    1.4577    0.0
    C    -0.0122    -1.4203000000000001    0.0
    C    1.260125    0.6818249999999999    0.0
    C    1.2328999999999999    -0.7218    0.0
    C    -1.263775    0.689475    0.0
    C    -1.2429000000000001    -0.7229999999999999    0.0
    H    2.4880000000000004    2.4527250000000005    0.0
    H    4.643975    1.224025    0.0
    H    4.607550000000001    -1.2626750000000002    0.0
    H    2.4641499999999996    -2.4768249999999994    0.0
    H    -0.011250000000000001    -2.5014999999999996    0.0
    H    -2.4714499999999995    -2.4856749999999996    0.0
    H    -4.61045    -1.262225    0.0
    H    -4.627325    1.2182749999999998    0.0
    H    -2.4838000000000005    2.453175    0.0
    H    0.016    2.1535    -0.8585
    H    0.016    2.1535    0.8585

