%NProcShared=32
%mem = 128GB
#n M062X/6-311++G(d,p) TD(NStates=1) EmpiricalDispersion=GD3 SP
 
 SP_-100

1 1
    C    2.483    1.3703    0.0
    C    3.6918499999999996    0.6777    0.0
    C    3.6807    -0.7097999999999999    0.0
    C    2.47085    -1.4031500000000001    0.0
    C    -2.4552500000000004    -1.3940500000000002    0.0
    C    -3.6853    -0.6973999999999998    0.0
    C    -3.7082999999999995    0.68475    0.0
    C    -2.4967    1.3697    0.0
    C    -0.004299999999999999    1.4555    0.0
    C    0.012199999999999999    -1.4202000000000001    0.0
    C    1.2637    0.6894499999999999    0.0
    C    1.2431    -0.72315    0.0
    C    -1.2600500000000001    0.6818    0.0
    C    -1.2330999999999999    -0.7219499999999999    0.0
    H    2.4827000000000004    2.4535    0.0
    H    4.6267499999999995    1.2186499999999998    0.0
    H    4.6103000000000005    -1.2616    0.0
    H    2.4715999999999996    -2.4855999999999994    0.0
    H    0.01125    -2.5014499999999993    0.0
    H    -2.4642999999999997    -2.476749999999999    0.0
    H    -4.6074    -1.2620500000000001    0.0
    H    -4.6434    1.2243999999999997    0.0
    H    -2.4869000000000003    2.45305    0.0
    H    -0.016    2.1530000000000005    -0.85795
    H    -0.016    2.1530000000000005    0.85795

