%NProcShared=32
%mem = 128GB
#n M062X/6-311++G(d,p) TD(NStates=1) EmpiricalDispersion=GD3 SP
 
 SP_-75

1 1
    C    2.4869    1.37    0.0
    C    3.6961999999999993    0.6793749999999998    0.0
    C    3.6820000000000004    -0.7069499999999999    0.0
    C    2.466975    -1.4009250000000004    0.0
    C    -2.459175    -1.3963750000000001    0.0
    C    -3.6843000000000004    -0.70075    0.0
    C    -3.7044249999999996    0.6828999999999998    0.0
    C    -2.49375    1.3697    0.0
    C    -0.0021249999999999993    1.4566000000000001    0.0
    C    0.006100000000000001    -1.42025    0.0
    C    1.262825    0.6875499999999999    0.0
    C    1.2405    -0.722775    0.0
    C    -1.2610000000000001    0.6837249999999999    0.0
    C    -1.2355    -0.722175    0.0
    H    2.4843    2.4532249999999998    0.0
    H    4.6312    1.2198999999999998    0.0
    H    4.60965    -1.262025    0.0
    H    2.4696999999999996    -2.4834249999999995    0.0
    H    0.0056250000000000015    -2.5014749999999992    0.0
    H    -2.466049999999999    -2.478999999999999    0.0
    H    -4.6082    -1.26225    0.0
    H    -4.639525000000001    1.222775    0.0
    H    -2.4864000000000006    2.4530000000000003    0.0
    H    -0.008    2.15325    -0.858225
    H    -0.008    2.15325    0.858225

