%NProcShared=32
%mem = 128GB
#n M062X/6-311++G(d,p) TD(NStates=1) EmpiricalDispersion=GD3 SP
 
 SP_-25

1 1
    C    2.4770000000000003    1.3694    0.0
    C    3.68165    0.671625    0.0
    C    3.6786    -0.72135    0.0
    C    2.4827749999999997    -1.4104249999999998    0.0
    C    -2.443775    -1.387675    0.0
    C    -3.6900999999999997    -0.6903499999999999    0.0
    C    -3.722775    0.68925    0.0
    C    -2.5112500000000004    1.3679    0.0
    C    -0.010975    1.4653999999999998    0.0
    C    0.0305    -1.4206500000000002    0.0
    C    1.266775    0.6953    0.0
    C    1.2497    -0.723375    0.0
    C    -1.25765    0.6761750000000001    0.0
    C    -1.2247000000000001    -0.720375    0.0
    H    2.4845    2.4523750000000004    0.0
    H    4.6168499999999995    1.21265    0.0
    H    4.61315    -1.264075    0.0
    H    2.4764    -2.492575    0.0
    H    0.028124999999999997    -2.501675    0.0
    H    -2.4581500000000003    -2.47045    0.0
    H    -4.6059    -1.2652    0.0
    H    -4.658475    1.227025    0.0
    H    -2.495    2.45125    0.0
    H    -0.04    2.15525    -0.860425
    H    -0.04    2.15525    0.860425

