%NProcShared=32
%mem = 128GB
#n M062X/6-311++G(d,p) TD(NStates=1) EmpiricalDispersion=GD3 SP
 
 SP_-50

1 1
    C    2.4967    1.3697    0.0
    C    3.7082999999999995    0.6847499999999999    0.0
    C    3.6853000000000002    -0.6973999999999998    0.0
    C    2.4552500000000004    -1.3940500000000002    0.0
    C    -2.47085    -1.4031500000000001    0.0
    C    -3.6807000000000003    -0.7097999999999999    0.0
    C    -3.6918499999999996    0.6776999999999999    0.0
    C    -2.483    1.3703    0.0
    C    0.004450000000000001    1.4555    0.0
    C    -0.012199999999999999    -1.4202000000000001    0.0
    C    1.2600500000000001    0.6818    0.0
    C    1.2331    -0.72195    0.0
    C    -1.2637    0.6894499999999999    0.0
    C    -1.2430999999999999    -0.7231499999999998    0.0
    H    2.4869000000000008    2.45305    0.0
    H    4.643400000000001    1.2243999999999997    0.0
    H    4.6074    -1.2620500000000001    0.0
    H    2.4642999999999993    -2.476749999999999    0.0
    H    -0.01125    -2.5014499999999997    0.0
    H    -2.471599999999999    -2.4855999999999994    0.0
    H    -4.6103000000000005    -1.2616    0.0
    H    -4.62675    1.2186499999999998    0.0
    H    -2.482700000000001    2.4535    0.0
    H    0.016    2.153    -0.8579500000000001
    H    0.016    2.153    0.8579500000000001

