%NProcShared=32
%mem = 128GB
#n M062X/6-311++G(d,p) TD(NStates=1) EmpiricalDispersion=GD3 SP
 
 SP_100

1 1
    C    2.50535    1.3679    0.0
    C    3.7150250000000002    0.68555    0.0
    C    3.6881    -0.69705    0.0
    C    2.451625    -1.3923249999999998    0.0
    C    -2.475025    -1.4059749999999998    0.0
    C    -3.6812    -0.71565    0.0
    C    -3.69035    0.674975    0.0
    C    -2.4848    1.3688    0.0
    C    0.006499999999999999    1.4676    0.0
    C    -0.018299999999999997    -1.42075    0.0
    C    1.25955    0.6800250000000001    0.0
    C    1.2295    -0.720825    0.0
    C    -1.265025    0.6915    0.0
    C    -1.2445000000000002    -0.722625    0.0
    H    2.4939999999999998    2.45115    0.0
    H    4.650725    1.223775    0.0
    H    4.6075    -1.2656    0.0
    H    2.46165    -2.47495    0.0
    H    -0.016875    -2.501725    0.0
    H    -2.4726    -2.4882250000000004    0.0
    H    -4.61185    -1.2649249999999999    0.0
    H    -4.62575    1.21515    0.0
    H    -2.4877    2.4518250000000004    0.0
    H    0.024    2.15575    -0.860975
    H    0.024    2.15575    0.860975

