%NProcShared=32
%mem = 128GB
#n M062X/6-311++G(d,p) TD(NStates=1) EmpiricalDispersion=GD3 SP
 
 SP_-50

1 1
    C    2.4731    1.3697    0.0
    C    3.6773    0.6699499999999999    0.0
    C    3.6773000000000002    -0.7242    0.0
    C    2.48665    -1.41265    0.0
    C    -2.4398500000000003    -1.3853499999999999    0.0
    C    -3.6911    -0.6869999999999999    0.0
    C    -3.7266500000000002    0.6910999999999999    0.0
    C    -2.5142    1.3679    0.0
    C    -0.01315    1.4643    0.0
    C    0.036599999999999994    -1.4206    0.0
    C    1.2676500000000002    0.6972    0.0
    C    1.2523000000000002    -0.72375    0.0
    C    -1.2567    0.67425    0.0
    C    -1.2223    -0.72015    0.0
    H    2.4829000000000003    2.45265    0.0
    H    4.6124    1.2113999999999998    0.0
    H    4.6137999999999995    -1.26365    0.0
    H    2.4782999999999995    -2.49475    0.0
    H    0.03375    -2.50165    0.0
    H    -2.4564    -2.4682    0.0
    H    -4.6051    -1.2650000000000001    0.0
    H    -4.662350000000001    1.22865    0.0
    H    -2.4955000000000003    2.4513    0.0
    H    -0.048    2.155    -0.8601500000000001
    H    -0.048    2.155    0.8601500000000001

