%NProcShared=32
%mem = 128GB
#n M062X/6-311++G(d,p) TD(NStates=1) EmpiricalDispersion=GD3 SP
 
 SP_-75

1 1
    C    2.4898499999999997    1.37    0.0
    C    3.7000749999999996    0.6812249999999999    0.0
    C    3.6830000000000003    -0.7035999999999998    0.0
    C    2.46305    -1.3986000000000003    0.0
    C    -2.4630500000000004    -1.3986    0.0
    C    -3.6830000000000003    -0.7035999999999999    0.0
    C    -3.7000749999999996    0.6812249999999999    0.0
    C    -2.4898499999999997    1.37    0.0
    C    7.500000000000041e-05    1.4555000000000002    0.0
    C    0.0    -1.4202    0.0
    C    1.261875    0.6856249999999999    0.0
    C    1.2381    -0.7225499999999999    0.0
    C    -1.261875    0.6856249999999998    0.0
    C    -1.2381    -0.7225499999999999    0.0
    H    2.4848000000000003    2.453275    0.0
    H    4.6350750000000005    1.2215249999999997    0.0
    H    4.60885    -1.261825    0.0
    H    2.467949999999999    -2.4811749999999995    0.0
    H    0.0    -2.5014499999999993    0.0
    H    -2.467949999999999    -2.4811749999999995    0.0
    H    -4.60885    -1.261825    0.0
    H    -4.6350750000000005    1.2215249999999997    0.0
    H    -2.4848000000000003    2.4532750000000005    0.0
    H    0.0    2.153    -0.8579500000000001
    H    0.0    2.153    0.8579500000000001

