%NProcShared=32
%mem = 128GB
#n M062X/6-311++G(d,p) TD(NStates=1) EmpiricalDispersion=GD3 SP
 
 SP_-125

1 1
    C    2.4879500000000005    1.3706    0.0
    C    3.699124999999999    0.6815749999999999    0.0
    C    3.6824    -0.7025999999999999    0.0
    C    2.46295    -1.3984000000000003    0.0
    C    -2.4629499999999998    -1.3984000000000005    0.0
    C    -3.6824    -0.7025999999999998    0.0
    C    -3.699124999999999    0.6815749999999999    0.0
    C    -2.4879500000000005    1.3706    0.0
    C    0.00012500000000000185    1.4510999999999998    0.0
    C    0.0    -1.4200000000000004    0.0
    C    1.261725    0.6855749999999998    0.0
    C    1.2385    -0.7228499999999999    0.0
    C    -1.261725    0.6855749999999999    0.0
    C    -1.2385    -0.7228499999999999    0.0
    H    2.482600000000001    2.4539250000000004    0.0
    H    4.633925    1.2222749999999998    0.0
    H    4.608550000000001    -1.2605750000000002    0.0
    H    2.4682499999999994    -2.481024999999999    0.0
    H    0.0    -2.5013499999999995    0.0
    H    -2.4682499999999994    -2.481024999999999    0.0
    H    -4.608550000000001    -1.2605750000000002    0.0
    H    -4.633925    1.2222749999999998    0.0
    H    -2.482600000000001    2.453925    0.0
    H    0.0    2.1520000000000006    -0.85685
    H    0.0    2.1520000000000006    0.85685

