%NProcShared=32
%mem = 128GB
#n M062X/6-311++G(d,p) TD(NStates=1) EmpiricalDispersion=GD3 SP
 
 SP_100

1 1
    C    2.5024    1.3679    0.0
    C    3.71115    0.6837    0.0
    C    3.6871    -0.7004    0.0
    C    2.45555    -1.39465    0.0
    C    -2.4711499999999997    -1.4037499999999998    0.0
    C    -3.6825    -0.7128000000000001    0.0
    C    -3.6947    0.67665    0.0
    C    -2.4887    1.3685    0.0
    C    0.004299999999999999    1.4687    0.0
    C    -0.012199999999999999    -1.4208    0.0
    C    1.2605    0.6819500000000001    0.0
    C    1.2319    -0.72105    0.0
    C    -1.2641499999999999    0.6896    0.0
    C    -1.2419000000000002    -0.7222500000000001    0.0
    H    2.4935    2.4511000000000003    0.0
    H    4.646850000000001    1.22215    0.0
    H    4.6083    -1.2658    0.0
    H    2.4634    -2.4772000000000003    0.0
    H    -0.01125    -2.5017500000000004    0.0
    H    -2.4707    -2.4860500000000005    0.0
    H    -4.6112    -1.26535    0.0
    H    -4.6302    1.2164000000000001    0.0
    H    -2.4893    2.45155    0.0
    H    0.016    2.1559999999999997    -0.8612500000000001
    H    0.016    2.1559999999999997    0.8612500000000001

