%NProcShared=32
%mem = 128GB
#n M062X/6-311++G(d,p) TD(NStates=1) EmpiricalDispersion=GD3 SP
 
 SP_0

1 1
    C    2.5074500000000004    1.3691    0.0
    C    3.7208749999999995    0.68995    0.0
    C    3.6889    -0.6883499999999998    0.0
    C    2.443575    -1.3872750000000003    0.0
    C    -2.4825749999999998    -1.410025    0.0
    C    -3.6774    -0.7193499999999999    0.0
    C    -3.6797499999999994    0.672325    0.0
    C    -2.4732000000000003    1.3706    0.0
    C    0.011000000000000001    1.4566    0.0
    C    -0.030500000000000003    -1.4202500000000002    0.0
    C    1.25735    0.676075    0.0
    C    1.2255    -0.7209749999999999    0.0
    C    -1.266475    0.6951999999999999    0.0
    C    -1.2505    -0.7239749999999999    0.0
    H    2.4906000000000006    2.45255    0.0
    H    4.656175    1.2285249999999999    0.0
    H    4.605300000000001    -1.2627000000000002    0.0
    H    2.4587499999999998    -2.4701499999999994    0.0
    H    -0.028125    -2.5014749999999997    0.0
    H    -2.4769999999999994    -2.4922749999999994    0.0
    H    -4.612550000000001    -1.2615750000000001    0.0
    H    -4.6145499999999995    1.2141499999999998    0.0
    H    -2.4801000000000006    2.4536750000000005    0.0
    H    0.04    2.1532500000000003    -0.858225
    H    0.04    2.1532500000000003    0.858225

