%NProcShared=32
%mem = 128GB
#n M062X/6-311++G(d,p) TD(NStates=1) EmpiricalDispersion=GD3 SP
 
 SP_75

1 1
    C    2.5162000000000004    1.3681999999999999    0.0
    C    3.73005    0.693125    0.0
    C    3.6917999999999997    -0.6831499999999999    0.0
    C    2.4358750000000002    -1.382925    0.0
    C    -2.4904749999999996    -1.4147750000000001    0.0
    C    -3.6757    -0.7265499999999999    0.0
    C    -3.6724749999999995    0.66845    0.0
    C    -2.4682500000000003    1.3703    0.0
    C    0.015325    1.4609999999999999    0.0
    C    -0.0427    -1.4204500000000002    0.0
    C    1.2556749999999999    0.6723    0.0
    C    1.2201    -0.720075    0.0
    C    -1.26845    0.699075    0.0
    C    -1.2551    -0.7242749999999999    0.0
    H    2.4949000000000003    2.4516750000000003    0.0
    H    4.66565    1.23065    0.0
    H    4.604150000000001    -1.2641750000000003    0.0
    H    2.4548    -2.4658749999999996    0.0
    H    -0.039375    -2.501575    0.0
    H    -2.4803499999999996    -2.49685    0.0
    H    -4.6143    -1.2626    0.0
    H    -4.607374999999999    1.2105249999999999    0.0
    H    -2.4802000000000004    2.45325    0.0
    H    0.056    2.15425    -0.859325
    H    0.056    2.15425    0.859325

