%NProcShared=32
%mem = 128GB
#n M062X/6-311++G(d,p) TD(NStates=1) EmpiricalDispersion=GD3 SP
 
 SP_-100

1 1
    C    2.48595    1.3703    0.0
    C    3.6957249999999995    0.6795499999999999    0.0
    C    3.6817    -0.7064499999999998    0.0
    C    2.466925    -1.4008250000000002    0.0
    C    -2.4591250000000002    -1.3962750000000002    0.0
    C    -3.684    -0.7002499999999998    0.0
    C    -3.7039499999999994    0.6830749999999999    0.0
    C    -2.4928    1.37    0.0
    C    -0.0020999999999999994    1.4544000000000001    0.0
    C    0.006099999999999998    -1.42015    0.0
    C    1.26275    0.6875249999999999    0.0
    C    1.2407    -0.7229249999999999    0.0
    C    -1.260925    0.6836999999999999    0.0
    C    -1.2357    -0.7223249999999999    0.0
    H    2.4832000000000005    2.4535500000000003    0.0
    H    4.630625    1.2202749999999998    0.0
    H    4.609500000000001    -1.2614    0.0
    H    2.469849999999999    -2.4833499999999993    0.0
    H    0.005624999999999998    -2.5014249999999993    0.0
    H    -2.4661999999999993    -2.4789249999999994    0.0
    H    -4.60805    -1.261625    0.0
    H    -4.63895    1.2231499999999997    0.0
    H    -2.4853000000000005    2.4533250000000004    0.0
    H    -0.008    2.15275    -0.8576750000000001
    H    -0.008    2.15275    0.8576750000000001

