%NProcShared=32
%mem = 128GB
#n M062X/6-311++G(d,p) TD(NStates=1) EmpiricalDispersion=GD3 SP
 
 SP_-50

1 1
    C    2.4701500000000003    1.3697    0.0
    C    3.673425    0.6680999999999999    0.0
    C    3.6763000000000003    -0.7275499999999999    0.0
    C    2.4905749999999998    -1.4149749999999999    0.0
    C    -2.4359750000000004    -1.3831249999999997    0.0
    C    -3.6924    -0.6841499999999999    0.0
    C    -3.7310000000000003    0.6927749999999999    0.0
    C    -2.5181000000000004    1.3676    0.0
    C    -0.01535    1.4653999999999998    0.0
    C    0.0427    -1.4206500000000002    0.0
    C    1.2686000000000002    0.699125    0.0
    C    1.2547000000000001    -0.723975    0.0
    C    -1.255825    0.67235    0.0
    C    -1.2197    -0.7197749999999999    0.0
    H    2.4824    2.4526000000000003    0.0
    H    4.608525    1.2097749999999998    0.0
    H    4.614599999999999    -1.26385    0.0
    H    2.4800499999999994    -2.497    0.0
    H    0.039375    -2.501675    0.0
    H    -2.4545    -2.466025    0.0
    H    -4.60445    -1.265425    0.0
    H    -4.666800000000001    1.2299    0.0
    H    -2.4971    2.4510249999999996    0.0
    H    -0.056    2.1552499999999997    -0.8604250000000001
    H    -0.056    2.1552499999999997    0.8604250000000001

