%NProcShared=32
%mem = 128GB
#n M062X/6-311++G(d,p) TD(NStates=1) EmpiricalDispersion=GD3 SP
 
 SP_50

1 1
    C    2.51525    1.3685    0.0
    C    3.7295749999999996    0.6933    0.0
    C    3.6914999999999996    -0.68265    0.0
    C    2.4358250000000004    -1.3828250000000002    0.0
    C    -2.4904249999999997    -1.4146750000000003    0.0
    C    -3.6754    -0.72605    0.0
    C    -3.6719999999999993    0.668625    0.0
    C    -2.4673    1.3706    0.0
    C    0.01535    1.4588    0.0
    C    -0.0427    -1.42035    0.0
    C    1.2555999999999998    0.672275    0.0
    C    1.2203    -0.7202249999999999    0.0
    C    -1.268375    0.69905    0.0
    C    -1.2553    -0.724425    0.0
    H    2.4938000000000002    2.452    0.0
    H    4.665075    1.231025    0.0
    H    4.604000000000001    -1.2635500000000002    0.0
    H    2.45495    -2.4657999999999998    0.0
    H    -0.039375    -2.5015249999999996    0.0
    H    -2.4804999999999997    -2.4967749999999995    0.0
    H    -4.61415    -1.261975    0.0
    H    -4.606799999999999    1.2108999999999999    0.0
    H    -2.4791000000000003    2.4535750000000007    0.0
    H    0.056    2.1537500000000005    -0.858775
    H    0.056    2.1537500000000005    0.858775

