%NProcShared=32
%mem = 128GB
#n M062X/6-311++G(d,p) TD(NStates=1) EmpiricalDispersion=GD3 SP
 
 SP_25

1 1
    C    2.49955    1.3688    0.0
    C    3.7097249999999997    0.684225    0.0
    C    3.6862    -0.6988999999999999    0.0
    C    2.4554    -1.3943500000000002    0.0
    C    -2.471    -1.4034499999999999    0.0
    C    -3.6816    -0.7113    0.0
    C    -3.693275    0.677175    0.0
    C    -2.48585    1.3694    0.0
    C    0.004375    1.4621    0.0
    C    -0.012199999999999999    -1.4205    0.0
    C    1.260275    0.681875    0.0
    C    1.2325000000000002    -0.7214999999999999    0.0
    C    -1.263925    0.6895249999999999    0.0
    C    -1.2425    -0.7227    0.0
    H    2.4902    2.452075    0.0
    H    4.645125    1.223275    0.0
    H    4.60785    -1.263925    0.0
    H    2.46385    -2.476975    0.0
    H    -0.01125    -2.5016    0.0
    H    -2.4711499999999997    -2.4858249999999997    0.0
    H    -4.61075    -1.2634750000000001    0.0
    H    -4.628475    1.217525    0.0
    H    -2.486    2.4525250000000005    0.0
    H    0.016    2.1545    -0.8596
    H    0.016    2.1545    0.8596

