%NProcShared=32
%mem = 128GB
#n M062X/6-311++G(d,p) TD(NStates=1) EmpiricalDispersion=GD3 SP
 
 SP_75

1 1
    C    2.5044000000000004    1.3681999999999999    0.0
    C    3.71455    0.685725    0.0
    C    3.6877999999999997    -0.69655    0.0
    C    2.451575    -1.3922249999999998    0.0
    C    -2.4749749999999997    -1.405875    0.0
    C    -3.6809    -0.71515    0.0
    C    -3.689875    0.67515    0.0
    C    -2.4838500000000003    1.3691    0.0
    C    0.0065249999999999996    1.4653999999999998    0.0
    C    -0.0183    -1.4206500000000002    0.0
    C    1.259475    0.68    0.0
    C    1.2297    -0.720975    0.0
    C    -1.26495    0.6914750000000001    0.0
    C    -1.2447000000000001    -0.722775    0.0
    H    2.4929    2.4514750000000003    0.0
    H    4.65015    1.22415    0.0
    H    4.60735    -1.2649750000000002    0.0
    H    2.4618    -2.474875    0.0
    H    -0.016875    -2.501675    0.0
    H    -2.47275    -2.48815    0.0
    H    -4.6117    -1.2643    0.0
    H    -4.625175    1.215525    0.0
    H    -2.4866    2.45215    0.0
    H    0.024    2.15525    -0.860425
    H    0.024    2.15525    0.860425

