%NProcShared=32
%mem = 128GB
#n M062X/6-311++G(d,p) TD(NStates=1) EmpiricalDispersion=GD3 SP
 
 SP_0

1 1
    C    2.47795    1.3691    0.0
    C    3.682125    0.67145    0.0
    C    3.6789    -0.7218500000000001    0.0
    C    2.482825    -1.4105249999999998    0.0
    C    -2.4438250000000004    -1.387775    0.0
    C    -3.6904    -0.69085    0.0
    C    -3.72325    0.689075    0.0
    C    -2.5122    1.3676    0.0
    C    -0.011000000000000001    1.4676    0.0
    C    0.030500000000000003    -1.42075    0.0
    C    1.26685    0.695325    0.0
    C    1.2495    -0.723225    0.0
    C    -1.257725    0.6762    0.0
    C    -1.2245000000000001    -0.720225    0.0
    H    2.4856    2.4520500000000003    0.0
    H    4.617425    1.212275    0.0
    H    4.6133    -1.2647    0.0
    H    2.47625    -2.4926500000000003    0.0
    H    0.028125    -2.501725    0.0
    H    -2.458    -2.4705250000000003    0.0
    H    -4.60605    -1.265825    0.0
    H    -4.659050000000001    1.22665    0.0
    H    -2.4960999999999998    2.450925    0.0
    H    -0.04    2.15575    -0.860975
    H    -0.04    2.15575    0.860975

