%NProcShared=32
%mem = 128GB
#n M062X/6-311++G(d,p) TD(NStates=1) EmpiricalDispersion=GD3 SP
 
 SP_50

1 1
    C    2.4857500000000003    1.3685    0.0
    C    3.6908250000000002    0.6748000000000001    0.0
    C    3.6814999999999998    -0.7161500000000001    0.0
    C    2.4750749999999995    -1.4060749999999997    0.0
    C    -2.4516750000000003    -1.3924249999999998    0.0
    C    -3.6883999999999997    -0.69755    0.0
    C    -3.7155    0.6853750000000001    0.0
    C    -2.5063000000000004    1.3676    0.0
    C    -0.006650000000000001    1.4697999999999998    0.0
    C    0.018300000000000004    -1.4208500000000002    0.0
    C    1.2651    0.691525    0.0
    C    1.2443    -0.722475    0.0
    C    -1.259625    0.68005    0.0
    C    -1.2293000000000003    -0.7206750000000001    0.0
    H    2.4887999999999995    2.4515000000000002    0.0
    H    4.626325    1.2147750000000002    0.0
    H    4.612    -1.26555    0.0
    H    2.4724500000000003    -2.4883000000000006    0.0
    H    0.016875    -2.501775    0.0
    H    -2.4615000000000005    -2.4750250000000005    0.0
    H    -4.60765    -1.266225    0.0
    H    -4.6513    1.2234    0.0
    H    -2.4950999999999994    2.450825    0.0
    H    -0.024    2.15625    -0.861525
    H    -0.024    2.15625    0.861525

