%NProcShared=32
%mem = 128GB
#n M062X/6-311++G(d,p) TD(NStates=1) EmpiricalDispersion=GD3 SP
 
 SP_-100

1 1
    C    2.4889    1.3703    0.0
    C    3.6995999999999993    0.6813999999999999    0.0
    C    3.6827    -0.7030999999999998    0.0
    C    2.463    -1.3985000000000003    0.0
    C    -2.463    -1.3985000000000003    0.0
    C    -3.6827    -0.7030999999999998    0.0
    C    -3.6995999999999993    0.6813999999999999    0.0
    C    -2.4889    1.3703    0.0
    C    0.00010000000000000113    1.4533    0.0
    C    0.0    -1.4201000000000001    0.0
    C    1.2618    0.6855999999999999    0.0
    C    1.2383    -0.7226999999999999    0.0
    C    -1.2618    0.6855999999999999    0.0
    C    -1.2383    -0.7226999999999999    0.0
    H    2.4837000000000007    2.4536000000000002    0.0
    H    4.6345    1.2218999999999998    0.0
    H    4.608700000000001    -1.2612    0.0
    H    2.4680999999999993    -2.481099999999999    0.0
    H    0.0    -2.5013999999999994    0.0
    H    -2.4680999999999993    -2.481099999999999    0.0
    H    -4.608700000000001    -1.2612    0.0
    H    -4.6345    1.2218999999999998    0.0
    H    -2.4837000000000007    2.4536000000000002    0.0
    H    0.0    2.1525000000000003    -0.8574
    H    0.0    2.1525000000000003    0.8574

