%NProcShared=32
%mem = 128GB
#n M062X/6-311++G(d,p) TD(NStates=1) EmpiricalDispersion=GD3 SP
 
 SP_-50

1 1
    C    2.47605    1.3697    0.0
    C    3.6811749999999996    0.6718    0.0
    C    3.6783    -0.72085    0.0
    C    2.4827250000000003    -1.410325    0.0
    C    -2.443725    -1.387575    0.0
    C    -3.6898    -0.68985    0.0
    C    -3.7223    0.689425    0.0
    C    -2.5103    1.3681999999999999    0.0
    C    -0.01095    1.4632    0.0
    C    0.0305    -1.42055    0.0
    C    1.2667000000000002    0.6952750000000001    0.0
    C    1.2499000000000002    -0.723525    0.0
    C    -1.2575749999999999    0.67615    0.0
    C    -1.2248999999999999    -0.720525    0.0
    H    2.4834000000000005    2.4527    0.0
    H    4.616275    1.2130249999999998    0.0
    H    4.6129999999999995    -1.26345    0.0
    H    2.4765499999999996    -2.4924999999999997    0.0
    H    0.028125    -2.501625    0.0
    H    -2.4583    -2.4703749999999998    0.0
    H    -4.6057500000000005    -1.2645750000000002    0.0
    H    -4.657900000000001    1.2274    0.0
    H    -2.4939000000000004    2.451575    0.0
    H    -0.04    2.15475    -0.8598750000000001
    H    -0.04    2.15475    0.8598750000000001

