%NProcShared=32
%mem = 128GB
#n M062X/6-311++G(d,p) TD(NStates=1) EmpiricalDispersion=GD3 SP
 
 SP_25

1 1
    C    2.5054499999999997    1.3688    0.0
    C    3.717475    0.6879249999999999    0.0
    C    3.6882    -0.6921999999999999    0.0
    C    2.4475500000000006    -1.3897000000000002    0.0
    C    -2.4787500000000002    -1.4079000000000002    0.0
    C    -3.6790000000000003    -0.717    0.0
    C    -3.6845749999999997    0.6738249999999999    0.0
    C    -2.4780499999999996    1.37    0.0
    C    0.008775    1.4599000000000002    0.0
    C    -0.024399999999999998    -1.4203999999999999    0.0
    C    1.258375    0.6780249999999999    0.0
    C    1.2277    -0.72105    0.0
    C    -1.265675    0.6933249999999999    0.0
    C    -1.2477    -0.7234499999999999    0.0
    H    2.4912    2.452175    0.0
    H    4.652875000000001    1.2265249999999999    0.0
    H    4.60625    -1.263525    0.0
    H    2.4603499999999996    -2.4724749999999998    0.0
    H    -0.0225    -2.5015499999999995    0.0
    H    -2.4749499999999993    -2.490175    0.0
    H    -4.61205    -1.2626249999999999    0.0
    H    -4.619575    1.2150249999999998    0.0
    H    -2.4828    2.453075    0.0
    H    0.032    2.154    -0.8590500000000001
    H    0.032    2.154    0.8590500000000001

