%NProcShared=32
%mem = 128GB
#n M062X/6-311++G(d,p) TD(NStates=1) EmpiricalDispersion=GD3 SP
 
 SP_-50

1 1
    C    2.48785    1.3697    0.0
    C    3.6966749999999995    0.6791999999999999    0.0
    C    3.6823    -0.7074499999999999    0.0
    C    2.4670250000000005    -1.4010250000000002    0.0
    C    -2.459225    -1.3964750000000001    0.0
    C    -3.6846    -0.7012499999999999    0.0
    C    -3.7049    0.6827249999999999    0.0
    C    -2.4947    1.3694    0.0
    C    -0.0021499999999999996    1.4588    0.0
    C    0.0060999999999999995    -1.42035    0.0
    C    1.2629000000000001    0.687575    0.0
    C    1.2403000000000002    -0.722625    0.0
    C    -1.261075    0.68375    0.0
    C    -1.2352999999999998    -0.7220249999999999    0.0
    H    2.4854000000000007    2.4529    0.0
    H    4.631775    1.2195249999999997    0.0
    H    4.6098    -1.26265    0.0
    H    2.4695499999999995    -2.4834999999999994    0.0
    H    0.005625    -2.501525    0.0
    H    -2.4658999999999995    -2.4790749999999995    0.0
    H    -4.608350000000001    -1.2628750000000002    0.0
    H    -4.6401    1.2224    0.0
    H    -2.4875000000000007    2.452675    0.0
    H    -0.008    2.15375    -0.8587750000000001
    H    -0.008    2.15375    0.8587750000000001

