%NProcShared=32
%mem = 128GB
#n M062X/6-311++G(d,p) TD(NStates=1) EmpiricalDispersion=GD3 SP
 
 SP_-75

1 1
    C    2.4662499999999996    1.37    0.0
    C    3.669075    0.6664249999999999    0.0
    C    3.6750000000000003    -0.7303999999999999    0.0
    C    2.4944499999999996    -1.4172    0.0
    C    -2.4320500000000007    -1.3807999999999998    0.0
    C    -3.6934    -0.6808    0.0
    C    -3.734875    0.6946249999999999    0.0
    C    -2.52105    1.3676    0.0
    C    -0.017525    1.4643000000000002    0.0
    C    0.0488    -1.4205999999999999    0.0
    C    1.2694750000000001    0.701025    0.0
    C    1.2573    -0.7243499999999999    0.0
    C    -1.254875    0.6704249999999999    0.0
    C    -1.2173    -0.71955    0.0
    H    2.4808    2.452875    0.0
    H    4.604075    1.2085249999999998    0.0
    H    4.61525    -1.2634249999999998    0.0
    H    2.4819499999999994    -2.499175    0.0
    H    0.045    -2.5016499999999997    0.0
    H    -2.45275    -2.463775    0.0
    H    -4.60365    -1.265225    0.0
    H    -4.670675000000001    1.231525    0.0
    H    -2.4976    2.4510750000000003    0.0
    H    -0.064    2.155    -0.8601500000000001
    H    -0.064    2.155    0.8601500000000001

