%NProcShared=32
%mem = 128GB
#n M062X/6-311++G(d,p) TD(NStates=1) EmpiricalDispersion=GD3 SP
 
 SP_-125

1 1
    C    2.4761500000000005    1.3706    0.0
    C    3.6836249999999993    0.674175    0.0
    C    3.6784    -0.716    0.0
    C    2.47865    -1.4077000000000002    0.0
    C    -2.44745    -1.3895000000000004    0.0
    C    -3.6875999999999998    -0.6911999999999998    0.0
    C    -3.7165249999999994    0.688275    0.0
    C    -2.5035500000000006    1.3694    0.0
    C    -0.008674999999999999    1.4554999999999998    0.0
    C    0.024400000000000005    -1.4202000000000004    0.0
    C    1.265525    0.6932749999999999    0.0
    C    1.2481    -0.7237499999999999    0.0
    C    -1.258225    0.677975    0.0
    C    -1.2281    -0.7213499999999999    0.0
    H    2.480600000000001    2.4537250000000004    0.0
    H    4.618424999999999    1.2157749999999998    0.0
    H    4.611750000000001    -1.2613750000000001    0.0
    H    2.4752499999999995    -2.4900249999999993    0.0
    H    0.0225    -2.5014499999999997    0.0
    H    -2.46065    -2.472324999999999    0.0
    H    -4.605950000000001    -1.2622750000000003    0.0
    H    -4.651725    1.227275    0.0
    H    -2.4890000000000008    2.452825    0.0
    H    -0.032    2.1530000000000005    -0.85795
    H    -0.032    2.1530000000000005    0.85795

