%NProcShared=32
%mem = 128GB
#n M062X/6-311++G(d,p) TD(NStates=1) EmpiricalDispersion=GD3 SP
 
 SP_75

1 1
    C    2.4926000000000004    1.3681999999999999    0.0
    C    3.69905    0.6783250000000001    0.0
    C    3.6837999999999997    -0.7099500000000001    0.0
    C    2.467275    -1.4015249999999997    0.0
    C    -2.459475    -1.3969749999999999    0.0
    C    -3.6860999999999997    -0.70375    0.0
    C    -3.707275    0.6818500000000001    0.0
    C    -2.4994500000000004    1.3679    0.0
    C    -0.002275000000000001    1.4697999999999998    0.0
    C    0.006099999999999998    -1.4208500000000002    0.0
    C    1.263275    0.6877000000000001    0.0
    C    1.2393    -0.721875    0.0
    C    -1.26145    0.6838750000000001    0.0
    C    -1.2343000000000002    -0.721275    0.0
    H    2.4909    2.4512750000000003    0.0
    H    4.63465    1.2176500000000001    0.0
    H    4.61055    -1.265775    0.0
    H    2.4688000000000003    -2.4838750000000003    0.0
    H    0.005624999999999998    -2.5017750000000003    0.0
    H    -2.4651500000000004    -2.4794500000000004    0.0
    H    -4.6091    -1.266    0.0
    H    -4.642975    1.220525    0.0
    H    -2.493    2.45105    0.0
    H    -0.008    2.15625    -0.861525
    H    -0.008    2.15625    0.861525

