%NProcShared=32
%mem = 128GB
#n M062X/6-311++G(d,p) TD(NStates=1) EmpiricalDispersion=GD3 SP
 
 SP_0

1 1
    C    2.5045    1.3691    0.0
    C    3.7169999999999996    0.6880999999999999    0.0
    C    3.6879    -0.6916999999999999    0.0
    C    2.4475000000000002    -1.3896000000000002    0.0
    C    -2.4787    -1.4078000000000002    0.0
    C    -3.6787    -0.7164999999999999    0.0
    C    -3.6840999999999995    0.6739999999999999    0.0
    C    -2.4771    1.3703    0.0
    C    0.0088    1.4577    0.0
    C    -0.024399999999999998    -1.4203000000000001    0.0
    C    1.2583    0.6779999999999999    0.0
    C    1.2279    -0.7212    0.0
    C    -1.2656    0.6932999999999999    0.0
    C    -1.2479    -0.7235999999999999    0.0
    H    2.4901000000000004    2.4525    0.0
    H    4.6523    1.2268999999999999    0.0
    H    4.6061000000000005    -1.2629000000000001    0.0
    H    2.4604999999999997    -2.4723999999999995    0.0
    H    -0.0225    -2.5014999999999996    0.0
    H    -2.4750999999999994    -2.4900999999999995    0.0
    H    -4.6119    -1.262    0.0
    H    -4.619    1.2153999999999998    0.0
    H    -2.4817000000000005    2.4534000000000002    0.0
    H    0.032    2.1535    -0.8585
    H    0.032    2.1535    0.8585

