%NProcShared=32
%mem = 128GB
#n M062X/6-311++G(d,p) TD(NStates=1) EmpiricalDispersion=GD3 SP
 
 SP_25

1 1
    C    2.4966    1.3688    0.0
    C    3.70585    0.682375    0.0
    C    3.6852    -0.7022499999999999    0.0
    C    2.459325    -1.396675    0.0
    C    -2.4671250000000002    -1.401225    0.0
    C    -3.6829    -0.70845    0.0
    C    -3.697625    0.67885    0.0
    C    -2.48975    1.3691    0.0
    C    0.002175    1.4632    0.0
    C    -0.0060999999999999995    -1.42055    0.0
    C    1.261225    0.6838    0.0
    C    1.2349    -0.721725    0.0
    C    -1.26305    0.6876249999999999    0.0
    C    -1.2399    -0.722325    0.0
    H    2.4897    2.452025    0.0
    H    4.64125    1.22165    0.0
    H    4.60865    -1.264125    0.0
    H    2.4656    -2.479225    0.0
    H    -0.005625    -2.5016249999999998    0.0
    H    -2.4692499999999997    -2.48365    0.0
    H    -4.6101    -1.2639    0.0
    H    -4.632925    1.218775    0.0
    H    -2.4876    2.4522500000000003    0.0
    H    0.008    2.15475    -0.8598750000000001
    H    0.008    2.15475    0.8598750000000001

