%NProcShared=32
%mem = 128GB
#n M062X/6-311++G(d,p) TD(NStates=1) EmpiricalDispersion=GD3 SP
 
 SP_125

1 1
    C    2.5004    1.3676    0.0
    C    3.7077500000000003    0.681675    0.0
    C    3.6864    -0.70425    0.0
    C    2.459525    -1.3970749999999998    0.0
    C    -2.467325    -1.4016249999999997    0.0
    C    -3.6841    -0.7104500000000001    0.0
    C    -3.6995250000000004    0.67815    0.0
    C    -2.49355    1.3679    0.0
    C    0.0020749999999999987    1.472    0.0
    C    -0.006100000000000005    -1.42095    0.0
    C    1.261525    0.6839000000000001    0.0
    C    1.2341000000000002    -0.721125    0.0
    C    -1.26335    0.687725    0.0
    C    -1.2391    -0.7217250000000001    0.0
    H    2.4940999999999995    2.450725    0.0
    H    4.64355    1.22015    0.0
    H    4.609249999999999    -1.266625    0.0
    H    2.4650000000000003    -2.4795250000000006    0.0
    H    -0.0056250000000000015    -2.501825    0.0
    H    -2.4686500000000002    -2.4839500000000005    0.0
    H    -4.6107    -1.2664    0.0
    H    -4.635225    1.217275    0.0
    H    -2.4919999999999995    2.45095    0.0
    H    0.008    2.1567499999999997    -0.862075
    H    0.008    2.1567499999999997    0.862075

