%NProcShared=32
%mem = 128GB
#n M062X/6-311++G(d,p) TD(NStates=1) EmpiricalDispersion=GD3 SP
 
 SP_125

1 1
    C    2.4974499999999997    1.3676    0.0
    C    3.7038750000000005    0.679825    0.0
    C    3.6854    -0.7076    0.0
    C    2.46345    -1.3993999999999998    0.0
    C    -2.4634500000000004    -1.3993999999999995    0.0
    C    -3.6854    -0.7076000000000001    0.0
    C    -3.7038750000000005    0.679825    0.0
    C    -2.4974499999999997    1.3676    0.0
    C    -0.00012500000000000185    1.4731    0.0
    C    0.0    -1.4209999999999998    0.0
    C    1.262475    0.6858250000000001    0.0
    C    1.2365000000000002    -0.72135    0.0
    C    -1.262475    0.685825    0.0
    C    -1.2365000000000002    -0.72135    0.0
    H    2.4935999999999994    2.450675    0.0
    H    4.639675    1.218525    0.0
    H    4.610049999999999    -1.2668249999999999    0.0
    H    2.46675    -2.4817750000000007    0.0
    H    0.0    -2.50185    0.0
    H    -2.46675    -2.4817750000000007    0.0
    H    -4.610049999999999    -1.2668249999999999    0.0
    H    -4.639675    1.218525    0.0
    H    -2.4935999999999994    2.4506750000000004    0.0
    H    0.0    2.1569999999999996    -0.8623500000000001
    H    0.0    2.1569999999999996    0.8623500000000001

