%NProcShared=32
%mem = 128GB
#n M062X/6-311++G(d,p) TD(NStates=1) EmpiricalDispersion=GD3 SP
 
 SP_75

1 1
    C    2.51325    1.3681999999999999    0.0
    C    3.726175    0.691275    0.0
    C    3.6908    -0.6864999999999999    0.0
    C    2.4398    -1.3852499999999999    0.0
    C    -2.4865999999999997    -1.41255    0.0
    C    -3.677    -0.7236999999999999    0.0
    C    -3.6768249999999996    0.670125    0.0
    C    -2.47215    1.37    0.0
    C    0.013125    1.4621    0.0
    C    -0.0366    -1.4205    0.0
    C    1.2566249999999999    0.6742250000000001    0.0
    C    1.2225    -0.7203    0.0
    C    -1.2675750000000001    0.697175    0.0
    C    -1.2525000000000002    -0.7238999999999999    0.0
    H    2.4944    2.4516250000000004    0.0
    H    4.6617750000000004    1.229025    0.0
    H    4.6049500000000005    -1.2643750000000002    0.0
    H    2.45655    -2.4681249999999997    0.0
    H    -0.03375    -2.5016    0.0
    H    -2.4784499999999996    -2.494675    0.0
    H    -4.61365    -1.2630249999999998    0.0
    H    -4.611825    1.2117749999999998    0.0
    H    -2.4818000000000002    2.4529750000000003    0.0
    H    0.048    2.1545    -0.8596
    H    0.048    2.1545    0.8596

