%NProcShared=32
%mem = 128GB
#n M062X/6-311++G(d,p) TD(NStates=1) EmpiricalDispersion=GD3 SP
 
 SP_50

1 1
    C    2.49165    1.3685    0.0
    C    3.698575    0.6785000000000001    0.0
    C    3.6834999999999996    -0.7094500000000001    0.0
    C    2.467225    -1.401425    0.0
    C    -2.459425    -1.396875    0.0
    C    -3.6857999999999995    -0.70325    0.0
    C    -3.7068    0.6820250000000001    0.0
    C    -2.4985    1.3681999999999999    0.0
    C    -0.0022500000000000003    1.4676    0.0
    C    0.006100000000000001    -1.42075    0.0
    C    1.2631999999999999    0.687675    0.0
    C    1.2395    -0.7220249999999999    0.0
    C    -1.261375    0.6838500000000001    0.0
    C    -1.2345000000000002    -0.7214250000000001    0.0
    H    2.4898    2.4516    0.0
    H    4.634074999999999    1.2180250000000001    0.0
    H    4.6104    -1.26515    0.0
    H    2.4689500000000004    -2.4838000000000005    0.0
    H    0.0056250000000000015    -2.501725    0.0
    H    -2.4653000000000005    -2.479375    0.0
    H    -4.60895    -1.2653750000000001    0.0
    H    -4.642399999999999    1.2209    0.0
    H    -2.4919    2.4513750000000005    0.0
    H    -0.008    2.1557500000000003    -0.8609749999999999
    H    -0.008    2.1557500000000003    0.8609749999999999

