%NProcShared=32
%mem = 128GB
#n M062X/6-311++G(d,p) TD(NStates=1) EmpiricalDispersion=GD3 SP
 
 SP_50

1 1
    C    2.4887    1.3685    0.0
    C    3.6947    0.6766500000000001    0.0
    C    3.6824999999999997    -0.7128000000000001    0.0
    C    2.4711499999999997    -1.4037499999999998    0.0
    C    -2.45555    -1.39465    0.0
    C    -3.6870999999999996    -0.7004    0.0
    C    -3.71115    0.6837000000000001    0.0
    C    -2.5024    1.3679    0.0
    C    -0.004450000000000001    1.4687    0.0
    C    0.012199999999999999    -1.4208    0.0
    C    1.2641499999999999    0.6896    0.0
    C    1.2419    -0.72225    0.0
    C    -1.2605    0.6819500000000001    0.0
    C    -1.2319000000000002    -0.7210500000000001    0.0
    H    2.4892999999999996    2.45155    0.0
    H    4.630199999999999    1.2164000000000001    0.0
    H    4.6112    -1.26535    0.0
    H    2.4707000000000003    -2.4860500000000005    0.0
    H    0.01125    -2.50175    0.0
    H    -2.4634000000000005    -2.4772000000000003    0.0
    H    -4.6083    -1.2658    0.0
    H    -4.64685    1.22215    0.0
    H    -2.4934999999999996    2.4511000000000003    0.0
    H    -0.016    2.156    -0.86125
    H    -0.016    2.156    0.86125

