%NProcShared=32
%mem = 128GB
#n M062X/6-311++G(d,p) TD(NStates=1) EmpiricalDispersion=GD3 SP
 
 SP_-125

1 1
    C    2.4614000000000003    1.3706    0.0
    C    3.6642499999999996    0.664925    0.0
    C    3.6734    -0.73275    0.0
    C    2.4982749999999996    -1.419325    0.0
    C    -2.428075    -1.3783750000000001    0.0
    C    -3.6940999999999997    -0.6769499999999998    0.0
    C    -3.738275    0.69665    0.0
    C    -2.5230500000000005    1.3679    0.0
    C    -0.019674999999999998    1.4609999999999999    0.0
    C    0.054900000000000004    -1.4204500000000002    0.0
    C    1.270275    0.7029    0.0
    C    1.2601    -0.7248749999999999    0.0
    C    -1.25385    0.668475    0.0
    C    -1.2151    -0.719475    0.0
    H    2.4781000000000004    2.4534750000000005    0.0
    H    4.599049999999999    1.20765    0.0
    H    4.61575    -1.262375    0.0
    H    2.4839999999999995    -2.5012749999999997    0.0
    H    0.050625    -2.501575    0.0
    H    -2.45115    -2.4614499999999997    0.0
    H    -4.6027000000000005    -1.2644000000000002    0.0
    H    -4.673975    1.233525    0.0
    H    -2.4970000000000003    2.45145    0.0
    H    -0.07200000000000001    2.15425    -0.859325
    H    -0.07200000000000001    2.15425    0.859325

