%NProcShared=32
%mem = 128GB
#n M062X/6-311++G(d,p) TD(NStates=1) EmpiricalDispersion=GD3 SP
 
 SP_50

1 1
    C    2.4975500000000004    1.3685    0.0
    C    3.706325    0.6822    0.0
    C    3.6854999999999998    -0.70275    0.0
    C    2.4593749999999996    -1.3967749999999999    0.0
    C    -2.467175    -1.401325    0.0
    C    -3.6832    -0.70895    0.0
    C    -3.6980999999999997    0.678675    0.0
    C    -2.4907000000000004    1.3688    0.0
    C    0.0021499999999999996    1.4653999999999998    0.0
    C    -0.0060999999999999995    -1.4206500000000002    0.0
    C    1.2612999999999999    0.6838249999999999    0.0
    C    1.2347    -0.721575    0.0
    C    -1.263125    0.68765    0.0
    C    -1.2397000000000002    -0.722175    0.0
    H    2.4907999999999997    2.4517    0.0
    H    4.641825    1.221275    0.0
    H    4.6088000000000005    -1.26475    0.0
    H    2.46545    -2.4793000000000003    0.0
    H    -0.005625    -2.5016749999999996    0.0
    H    -2.4691    -2.483725    0.0
    H    -4.61025    -1.264525    0.0
    H    -4.6335    1.2184    0.0
    H    -2.4886999999999997    2.451925    0.0
    H    0.008    2.15525    -0.860425
    H    0.008    2.15525    0.860425

