%NProcShared=32
%mem = 128GB
#n M062X/6-311++G(d,p) TD(NStates=1) EmpiricalDispersion=GD3 SP
 
 SP_25

1 1
    C    2.4936499999999997    1.3688    0.0
    C    3.701975    0.6805249999999999    0.0
    C    3.6842    -0.7056    0.0
    C    2.4632500000000004    -1.399    0.0
    C    -2.4632500000000004    -1.399    0.0
    C    -3.6842    -0.7056    0.0
    C    -3.701975    0.6805249999999999    0.0
    C    -2.4936499999999997    1.3688    0.0
    C    -2.5000000000000282e-05    1.4643000000000002    0.0
    C    0.0    -1.4205999999999999    0.0
    C    1.262175    0.6857249999999999    0.0
    C    1.2373    -0.72195    0.0
    C    -1.262175    0.6857249999999999    0.0
    C    -1.2373    -0.72195    0.0
    H    2.4892    2.451975    0.0
    H    4.6373750000000005    1.220025    0.0
    H    4.60945    -1.264325    0.0
    H    2.4673499999999997    -2.481475    0.0
    H    0.0    -2.5016499999999997    0.0
    H    -2.4673499999999997    -2.481475    0.0
    H    -4.60945    -1.264325    0.0
    H    -4.6373750000000005    1.220025    0.0
    H    -2.4892    2.451975    0.0
    H    0.0    2.155    -0.8601500000000001
    H    0.0    2.155    0.8601500000000001

