%NProcShared=32
%mem = 128GB
#n M062X/6-311++G(d,p) TD(NStates=1) EmpiricalDispersion=GD3 SP
 
 SP_50

1 1
    C    2.4946    1.3685    0.0
    C    3.70245    0.68035    0.0
    C    3.6845    -0.7061000000000001    0.0
    C    2.4633    -1.3990999999999998    0.0
    C    -2.4633000000000003    -1.3991    0.0
    C    -3.6845    -0.7061    0.0
    C    -3.70245    0.68035    0.0
    C    -2.4946    1.3685    0.0
    C    -5.0000000000000565e-05    1.4665    0.0
    C    0.0    -1.4207    0.0
    C    1.2622499999999999    0.68575    0.0
    C    1.2370999999999999    -0.7218    0.0
    C    -1.2622499999999999    0.6857500000000001    0.0
    C    -1.2371000000000003    -0.7218    0.0
    H    2.4902999999999995    2.45165    0.0
    H    4.63795    1.2196500000000001    0.0
    H    4.6096    -1.26495    0.0
    H    2.4672    -2.4815500000000004    0.0
    H    0.0    -2.5016999999999996    0.0
    H    -2.4672    -2.4815500000000004    0.0
    H    -4.6096    -1.26495    0.0
    H    -4.63795    1.2196500000000001    0.0
    H    -2.4902999999999995    2.4516500000000003    0.0
    H    0.0    2.1555    -0.8607
    H    0.0    2.1555    0.8607

