%NProcShared=32
%mem = 128GB
#n M062X/6-311++G(d,p) TD(NStates=1) EmpiricalDispersion=GD3 SP
 
 SP_-25

1 1
    C    2.4829000000000003    1.3694    0.0
    C    3.6894    0.675325    0.0
    C    3.6806    -0.71465    0.0
    C    2.474925    -1.4057749999999998    0.0
    C    -2.451525    -1.392125    0.0
    C    -3.6875    -0.6960499999999998    0.0
    C    -3.714075    0.6859    0.0
    C    -2.5034500000000004    1.3685    0.0
    C    -0.006575    1.4631999999999998    0.0
    C    0.018299999999999997    -1.4205500000000002    0.0
    C    1.264875    0.69145    0.0
    C    1.2449    -0.722925    0.0
    C    -1.2593999999999999    0.679975    0.0
    C    -1.2299000000000002    -0.721125    0.0
    H    2.4855    2.4524750000000006    0.0
    H    4.624599999999999    1.2159    0.0
    H    4.61155    -1.263675    0.0
    H    2.4729    -2.488075    0.0
    H    0.016875    -2.5016249999999998    0.0
    H    -2.46195    -2.4748    0.0
    H    -4.607200000000001    -1.26435    0.0
    H    -4.6495750000000005    1.2245249999999999    0.0
    H    -2.4918000000000005    2.4518    0.0
    H    -0.024    2.15475    -0.859875
    H    -0.024    2.15475    0.859875

