%NProcShared=32
%mem = 128GB
#n M062X/6-311++G(d,p) TD(NStates=1) EmpiricalDispersion=GD3 SP
 
 SP_25

1 1
    C    2.4818499999999997    1.3688    0.0
    C    3.686475    0.673125    0.0
    C    3.6802    -0.7190000000000001    0.0
    C    2.47895    -1.4082999999999999    0.0
    C    -2.4477500000000005    -1.3901    0.0
    C    -3.6894    -0.6942    0.0
    C    -3.7193750000000003    0.687225    0.0
    C    -2.5092499999999998    1.3676    0.0
    C    -0.008825000000000001    1.4687000000000001    0.0
    C    0.024400000000000005    -1.4207999999999998    0.0
    C    1.265975    0.693425    0.0
    C    1.2469000000000001    -0.72285    0.0
    C    -1.258675    0.678125    0.0
    C    -1.2269    -0.72045    0.0
    H    2.4871999999999996    2.451775    0.0
    H    4.621875    1.213525    0.0
    H    4.6126499999999995    -1.2651249999999998    0.0
    H    2.47435    -2.4904750000000004    0.0
    H    0.0225    -2.50175    0.0
    H    -2.45975    -2.4727750000000004    0.0
    H    -4.60685    -1.266025    0.0
    H    -4.655175000000001    1.225025    0.0
    H    -2.4955999999999996    2.450875    0.0
    H    -0.032    2.1559999999999997    -0.8612500000000001
    H    -0.032    2.1559999999999997    0.8612500000000001

