%NProcShared=32
%mem = 128GB
#n M062X/6-311++G(d,p) TD(NStates=1) EmpiricalDispersion=GD3 SP
 
 SP_-25

1 1
    C    2.4888000000000003    1.3694    0.0
    C    3.6971499999999997    0.679025    0.0
    C    3.6826    -0.70795    0.0
    C    2.467075    -1.401125    0.0
    C    -2.459275    -1.3965750000000001    0.0
    C    -3.6849    -0.7017499999999999    0.0
    C    -3.7053749999999996    0.68255    0.0
    C    -2.4956500000000004    1.3691    0.0
    C    -0.002175    1.4609999999999999    0.0
    C    0.0060999999999999995    -1.4204500000000002    0.0
    C    1.262975    0.6876    0.0
    C    1.2401    -0.722475    0.0
    C    -1.26115    0.683775    0.0
    C    -1.2351    -0.7218749999999999    0.0
    H    2.4865000000000004    2.4525750000000004    0.0
    H    4.63235    1.21915    0.0
    H    4.60995    -1.2632750000000001    0.0
    H    2.4694    -2.4835749999999996    0.0
    H    0.005625    -2.501575    0.0
    H    -2.46575    -2.4791499999999997    0.0
    H    -4.6085    -1.2635    0.0
    H    -4.640675    1.222025    0.0
    H    -2.4886000000000004    2.45235    0.0
    H    -0.008    2.15425    -0.859325
    H    -0.008    2.15425    0.859325

