%NProcShared=32
%mem = 128GB
#n M062X/6-311++G(d,p) TD(NStates=1) EmpiricalDispersion=GD3 SP
 
 SP_75

1 1
    C    2.4985000000000004    1.3681999999999999    0.0
    C    3.7068000000000003    0.6820250000000001    0.0
    C    3.6857999999999995    -0.70325    0.0
    C    2.459425    -1.3968749999999996    0.0
    C    -2.467225    -1.401425    0.0
    C    -3.6834999999999996    -0.7094499999999999    0.0
    C    -3.698575    0.6785000000000001    0.0
    C    -2.4916500000000004    1.3685    0.0
    C    0.0021249999999999993    1.4675999999999998    0.0
    C    -0.006100000000000001    -1.4207500000000002    0.0
    C    1.261375    0.6838500000000001    0.0
    C    1.2345000000000002    -0.721425    0.0
    C    -1.2631999999999999    0.687675    0.0
    C    -1.2395    -0.7220249999999999    0.0
    H    2.4919000000000002    2.4513750000000005    0.0
    H    4.6424    1.2209    0.0
    H    4.60895    -1.2653750000000001    0.0
    H    2.4653    -2.479375    0.0
    H    -0.0056250000000000015    -2.5017250000000004    0.0
    H    -2.4689500000000004    -2.4838000000000005    0.0
    H    -4.6104    -1.26515    0.0
    H    -4.634074999999999    1.218025    0.0
    H    -2.4898    2.4516    0.0
    H    0.008    2.1557500000000003    -0.860975
    H    0.008    2.1557500000000003    0.860975

