echo

start molecule

title "Title"
charge 1

geometry units angstroms print xyz
symmetry c2v
   C       -3.64433        0.71031       -0.20545
   C       -2.41331        1.41497        0.01540
   C       -1.20937        0.75320        0.12478
   C       -1.25004       -0.66021        0.11657
   C       -2.47472       -1.35433       -0.16430
   C       -3.67256       -0.67691       -0.29621
   C        0.05388        1.43921        0.25119
   C       -0.03390       -1.41725        0.51091
   C        1.24452       -0.69271        0.15163
   C        1.25662        0.73051        0.15384
   C        2.49648        1.40026       -0.02397
   H        2.50888        2.48466       -0.01067
   C        3.64881        0.68600       -0.24630
   C        3.60648       -0.71224       -0.29637
   C        2.40664       -1.39376       -0.09813
   H        0.05825        2.52280        0.28226
   H       -4.55333        1.28792       -0.33496
   H       -2.44509        2.49705        0.09552
   H       -2.43925       -2.43580       -0.25124
   H       -4.59590       -1.20490       -0.49241
   H       -0.06832       -1.52860        1.61069
   H        4.58977        1.20195       -0.39239
   H        4.51706       -1.27367       -0.46977
   H        2.39461       -2.47832       -0.10951
   H       -0.05791       -2.43544        0.11091
end

basis
  * library 6-31G
end

dft
  xc b3lyp
  mult 1
end

tddft
  cis
  nroots 3
  notriplet
  target 1
  targetsym a1
  civecs
  grad
    root 1
  end
end

task tddft saddle

