%NProcShared=16
%mem = 64GB
%Chk=check_sp_11
#n M062X/cc-pvtz TD EmpiricalDispersion=GD3 SP
 
 SP_11

1 1
    C    2.47972    1.3691    0.0
    C    3.68445    0.67256    0.0
    C    3.6795    -0.71984    0.0
    C    2.48047    -1.4091299999999998    0.0
    C    -2.4461500000000003    -1.3891099999999998    0.0
    C    -3.6896199999999997    -0.69256    0.0
    C    -3.72064    0.6880700000000001    0.0
    C    -2.50986    1.3677799999999998    0.0
    C    -0.009680000000000001    1.46694    0.0
    C    0.026840000000000003    -1.42072    0.0
    C    1.26628    0.6941700000000001    0.0
    C    1.2480600000000002    -0.72309    0.0
    C    -1.2582499999999999    0.67734    0.0
    C    -1.2260600000000001    -0.72045    0.0
    H    2.4859    2.45208    0.0
    H    4.61975    1.21325    0.0
    H    4.61282    -1.26458    0.0
    H    2.4752    -2.4913000000000003    0.0
    H    0.02475    -2.50171    0.0
    H    -2.45914    -2.47183    0.0
    H    -4.60644    -1.26557    0.0
    H    -4.65638    1.2259    0.0
    H    -2.49514    2.45109    0.0
    H    -0.0352    2.1555999999999997    -0.8608100000000001
    H    -0.0352    2.1555999999999997    0.8608100000000001

