%NProcShared=16
%mem = 64GB
%Chk=check_sp_14
#n M062X/cc-pvtz TD EmpiricalDispersion=GD3 SP
 
 SP_14

1 1
    C    2.4761800000000003    1.3691    0.0
    C    3.6798    0.67034    0.0
    C    3.6783    -0.7238600000000001    0.0
    C    2.4851799999999997    -1.4119199999999998    0.0
    C    -2.4415000000000004    -1.38644    0.0
    C    -3.6911799999999997    -0.68914    0.0
    C    -3.7258600000000004    0.69008    0.0
    C    -2.51454    1.3674199999999999    0.0
    C    -0.012320000000000001    1.46826    0.0
    C    0.03416    -1.4207800000000002    0.0
    C    1.26742    0.69648    0.0
    C    1.2509400000000002    -0.72336    0.0
    C    -1.2571999999999999    0.6750600000000001    0.0
    C    -1.2229400000000001    -0.7200000000000001    0.0
    H    2.4853    2.45202    0.0
    H    4.6151    1.2113    0.0
    H    4.613779999999999    -1.2648199999999998    0.0
    H    2.4773    -2.494    0.0
    H    0.0315    -2.5017400000000003    0.0
    H    -2.4568600000000003    -2.4692200000000004    0.0
    H    -4.60566    -1.26608    0.0
    H    -4.661720000000001    1.2274    0.0
    H    -2.49706    2.45076    0.0
    H    -0.044800000000000006    2.1559    -0.86114
    H    -0.044800000000000006    2.1559    0.86114

