%NProcShared=16
%mem = 64GB
%Chk=check_sp_15
#n M062X/cc-pvtz TD EmpiricalDispersion=GD3 SP
 
 SP_15

1 1
    C    2.475    1.3691    0.0
    C    3.6782500000000002    0.6696    0.0
    C    3.6779    -0.7252000000000001    0.0
    C    2.48675    -1.4128499999999997    0.0
    C    -2.4399500000000005    -1.3855499999999998    0.0
    C    -3.6917    -0.688    0.0
    C    -3.7276000000000002    0.69075    0.0
    C    -2.5161000000000002    1.3672999999999997    0.0
    C    -0.0132    1.4687    0.0
    C    0.0366    -1.4208    0.0
    C    1.2678    0.69725    0.0
    C    1.2519    -0.7234499999999999    0.0
    C    -1.25685    0.6743000000000001    0.0
    C    -1.2219000000000002    -0.7198500000000001    0.0
    H    2.4851    2.452    0.0
    H    4.61355    1.21065    0.0
    H    4.6141    -1.2649    0.0
    H    2.4779999999999998    -2.4949000000000003    0.0
    H    0.03375    -2.5017500000000004    0.0
    H    -2.4561    -2.46835    0.0
    H    -4.6053999999999995    -1.26625    0.0
    H    -4.663500000000001    1.2279    0.0
    H    -2.4977    2.45065    0.0
    H    -0.048    2.1559999999999997    -0.8612500000000001
    H    -0.048    2.1559999999999997    0.8612500000000001

