%NProcShared=16
%mem = 64GB
%Chk=check_sp_18
#n M062X/cc-pvtz TD EmpiricalDispersion=GD3 SP
 
 SP_18

1 1
    C    2.47146    1.3691    0.0
    C    3.6736    0.6673800000000001    0.0
    C    3.6767    -0.7292200000000001    0.0
    C    2.4914599999999996    -1.4156399999999998    0.0
    C    -2.4353000000000002    -1.3828799999999999    0.0
    C    -3.6932599999999995    -0.68458    0.0
    C    -3.7328200000000002    0.69276    0.0
    C    -2.5207800000000002    1.3669399999999998    0.0
    C    -0.01584    1.4700199999999999    0.0
    C    0.04392    -1.42086    0.0
    C    1.26894    0.6995600000000001    0.0
    C    1.2547800000000002    -0.72372    0.0
    C    -1.2557999999999998    0.6720200000000001    0.0
    C    -1.2187800000000002    -0.7194    0.0
    H    2.4844999999999997    2.45194    0.0
    H    4.608899999999999    1.2087    0.0
    H    4.61506    -1.26514    0.0
    H    2.4801    -2.4976000000000003    0.0
    H    0.0405    -2.50178    0.0
    H    -2.4538200000000003    -2.4657400000000003    0.0
    H    -4.60462    -1.26676    0.0
    H    -4.66884    1.2294    0.0
    H    -2.4996199999999997    2.45032    0.0
    H    -0.057600000000000005    2.1563    -0.86158
    H    -0.057600000000000005    2.1563    0.86158

