%NProcShared=16
%mem = 64GB
%Chk=check_sp_7
#n M062X/cc-pvtz TD EmpiricalDispersion=GD3 SP
 
 SP_7

1 1
    C    2.48444    1.3691    0.0
    C    3.6906499999999998    0.67552    0.0
    C    3.6811    -0.71448    0.0
    C    2.47419    -1.40541    0.0
    C    -2.45235    -1.3926699999999999    0.0
    C    -3.68754    -0.69712    0.0
    C    -3.71368    0.68539    0.0
    C    -2.50362    1.3682599999999998    0.0
    C    -0.0061600000000000005    1.46518    0.0
    C    0.01708    -1.4206400000000001    0.0
    C    1.26476    0.69109    0.0
    C    1.24422    -0.72273    0.0
    C    -1.25965    0.68038    0.0
    C    -1.23022    -0.72105    0.0
    H    2.4867    2.45216    0.0
    H    4.62595    1.2158499999999999    0.0
    H    4.61154    -1.26426    0.0
    H    2.4724    -2.4877000000000002    0.0
    H    0.01575    -2.50167    0.0
    H    -2.46218    -2.47531    0.0
    H    -4.60748    -1.26489    0.0
    H    -4.64926    1.2239    0.0
    H    -2.4925800000000002    2.45153    0.0
    H    -0.022400000000000003    2.1552000000000002    -0.8603700000000001
    H    -0.022400000000000003    2.1552000000000002    0.8603700000000001

