echo

start molecule

title "Title"
charge 1

geometry units angstroms print xyz
symmetry c2v
   C       -3.71260        0.00000       -0.72126
   C       -2.48444        0.00000       -1.41410
   C       -1.25027        0.00000       -0.73189
   C       -1.27403        0.00000        0.68113
   C       -2.51356        0.00000        1.36784
   C       -3.72836        0.00000        0.67379
   C        0.00000        0.00000       -1.43536
   C        0.00000        0.00000        1.46513
   C        1.27403        0.00000        0.68113
   C        1.25027        0.00000       -0.73189
   C        2.48444        0.00000       -1.41410
   H        2.48826        0.00000       -2.50086
   C        3.71260        0.00000       -0.72126
   C        3.72836        0.00000        0.67379
   C        2.51356        0.00000        1.36784
   H        0.00000        0.00000       -2.51953
   H       -4.64105        0.00000       -1.28310
   H       -2.48826        0.00000       -2.50086
   H       -2.51344        0.00000        2.45478
   H       -4.66730        0.00000        1.21673
   H        0.00000        0.86417        2.15617
   H        4.64105        0.00000       -1.28310
   H        4.66730        0.00000        1.21673
   H        2.51344        0.00000        2.45478
   H        0.00000       -0.86417        2.15617
end

basis
  * library 6-311+G*
end

dft
  xc b3lyp
  mult 1
end

tddft
  cis
  nroots 5
  notriplet
  target 1
  targetsym a1
  civecs
  grad
    root 1
  end
end

task tddft optimize

