echo

start molecule

title "Title"
charge 1

geometry units angstroms print xyz 
symmetry Cs
   C        3.68899       -0.71525       -0.00001
   C        2.46648       -1.40896       -0.00000
   C        1.23907       -0.73181        0.00001
   C        1.26444        0.67745        0.00001
   C        2.49637        1.36186        0.00000
   C        3.70715        0.67289       -0.00001
   C        0.00000       -1.43027        0.00001
   C        0.00000        1.45619        0.00002
   C       -1.26444        0.67745        0.00000
   C       -1.23907       -0.73181        0.00001
   C       -2.46648       -1.40896        0.00000
   H       -2.46979       -2.49439        0.00001
   C       -3.68899       -0.71525       -0.00001
   C       -3.70715        0.67289       -0.00002
   C       -2.49637        1.36186       -0.00001
   H        0.00000       -2.51406        0.00002
   H        4.61630       -1.27585       -0.00002
   H        2.46979       -2.49439       -0.00001
   H        2.49099        2.44785        0.00001
   H        4.64457        1.21394       -0.00001
   H       -0.00000        2.15068        0.86166
   H       -4.61630       -1.27585       -0.00001
   H       -4.64457        1.21394       -0.00003
   H       -2.49099        2.44785       -0.00002
   H        0.00000        2.15073       -0.86158
end

basis
  * library 6-31G*
end

dft
  xc b3lyp
  mult 1
end

tddft
  cis
  nroots 5
  notriplet
  target 1
  targetsym a'
  civecs
  grad
    root 1
  end
end

task tddft optimize

