%NProcShared=48
%mem = 190GB
#n M062X/6-311++G(d,p) TD(NStates=1) EmpiricalDispersion=GD3 SP
 
 SP_12

1 1
    C    0.0    2.3266549999999997    1.382431
    C    0.0    3.4955079999999996    0.565989
    C    0.0    3.5598609999999997    -0.9178299999999999
    C    -0.0    2.6791560000000003    -1.485538
    C    0.0    -2.247156    -1.3295379999999999
    C    0.0    -3.807861    -0.50983
    C    0.0    -3.9075080000000004    0.7779889999999999
    C    -0.0    -2.6586550000000004    1.338431
    C    0.0    -0.10400000000000001    1.453369
    C    0.0    0.36    -1.429189
    C    0.0    1.382055    0.8510650000000001
    C    0.0    1.337471    -0.704804
    C    0.0    -1.1420549999999998    0.503065
    C    0.0    -1.137471    -0.756804
    H    0.0    2.482071    2.4656469999999997
    H    0.0    4.4447529999999995    1.093689
    H    0.0    4.569262000000001    -1.326349
    H    -0.0    2.52355    -2.5680590000000003
    H    0.0    0.362    -2.510266
    H    0.0    -2.41155    -2.4120589999999997
    H    0.0    -4.649261999999999    -1.218349
    H    0.0    -4.828753    1.3296890000000001
    H    0.0    -2.4940710000000004    2.421647
    H    -0.859585    -0.5760000000000001    2.145787
    H    0.859585    -0.5760000000000001    2.145787

