%NProcShared=48
%mem = 190GB
#n M062X/6-311++G(d,p) TD(NStates=1) EmpiricalDispersion=GD3 SP
 
 SP_-8

1 1
    C    0.0    2.568655    1.316431
    C    -0.0    3.825508    0.755989
    C    0.0    3.787861    -0.5618299999999999
    C    0.0    2.351156    -1.379538
    C    0.0    -2.5751560000000002    -1.435538
    C    0.0    -3.5798609999999997    -0.86583
    C    0.0    -3.577508    0.5879889999999999
    C    0.0    -2.416655    1.404431
    C    -0.0    0.08    1.453369
    C    0.0    -0.256    -1.429189
    C    0.0    1.1660549999999998    0.5050650000000001
    C    0.0    1.181471    -0.798804
    C    0.0    -1.358055    0.849065
    C    -0.0    -1.293471    -0.6628040000000001
    H    0.0    2.420071    2.399647
    H    0.0    4.732753    1.3356890000000001
    H    0.0    4.673262    -1.1963489999999999
    H    0.0    2.49955    -2.462059
    H    0.0    -0.324    -2.510266
    H    0.0    -2.43555    -2.518059
    H    -0.0    -4.545262    -1.348349
    H    0.0    -4.540753    1.087689
    H    0.0    -2.556071    2.487647
    H    -0.859585    0.44799999999999995    2.145787
    H    0.859585    0.44799999999999995    2.145787

