%NProcShared=48
%mem = 190GB
#n M062X/6-311++G(d,p) TD(NStates=1) EmpiricalDispersion=GD3 SP
 
 SP_-10

1 1
    C    -0.0    2.652655    1.360431
    C    0.0    3.881508    0.7519889999999999
    C    0.0    3.7738609999999997    -0.5538299999999999
    C    0.0    2.263156    -1.3275379999999999
    C    -0.0    -2.6631560000000003    -1.487538
    C    0.0    -3.593861    -0.87383
    C    0.0    -3.521508    0.591989
    C    0.0    -2.332655    1.360431
    C    0.0    0.08    1.453369
    C    0.0    -0.29    -1.429189
    C    0.0    1.1720549999999998    0.567065
    C    0.0    1.147471    -0.720804
    C    0.0    -1.352055    0.787065
    C    0.0    -1.327471    -0.740804
    H    -0.0    2.538071    2.443647
    H    -0.0    4.816752999999999    1.281689
    H    0.0    4.619262    -1.252349
    H    0.0    2.3775500000000003    -2.410059
    H    0.0    -0.25    -2.510266
    H    -0.0    -2.55755    -2.570059
    H    0.0    -4.599262    -1.292349
    H    0.0    -4.456753    1.141689
    H    -0.0    -2.4380710000000003    2.443647
    H    -0.859585    0.44000000000000006    2.145787
    H    0.859585    0.44000000000000006    2.145787

