%NProcShared=48
%mem = 190GB
#n M062X/6-311++G(d,p) TD(NStates=1) EmpiricalDispersion=GD3 SP
 
 SP_4

1 1
    C    0.0    2.506655    1.426431
    C    0.0    3.6595079999999998    0.6099889999999999
    C    0.0    3.5998609999999998    -0.81383
    C    -0.0    2.471156    -1.385538
    C    0.0    -2.455156    -1.429538
    C    0.0    -3.767861    -0.6138299999999999
    C    0.0    -3.7435080000000003    0.733989
    C    -0.0    -2.4786550000000003    1.2944309999999999
    C    0.0    -0.056    1.453369
    C    0.0    0.152    -1.429189
    C    0.0    1.334055    0.8470650000000001
    C    0.0    1.249471    -0.620804
    C    0.0    -1.1900549999999999    0.507065
    C    0.0    -1.225471    -0.840804
    H    0.0    2.630071    2.5096469999999997
    H    0.0    4.636753    1.081689
    H    0.0    4.521262000000001    -1.370349
    H    -0.0    2.34755    -2.4680590000000002
    H    0.0    0.28600000000000003    -2.510266
    H    0.0    -2.5875500000000002    -2.512059
    H    0.0    -4.697261999999999    -1.1743489999999999
    H    0.0    -4.636753    1.3416890000000001
    H    0.0    -2.3460710000000002    2.377647
    H    -0.859585    -0.31999999999999995    2.145787
    H    0.859585    -0.31999999999999995    2.145787

