%NProcShared=48
%mem = 190GB
#n M062X/6-311++G(d,p) TD(NStates=1) EmpiricalDispersion=GD3 SP
 
 SP_4

1 1
    C    0.0    2.402655    1.338431
    C    0.0    3.619508    0.6499889999999999
    C    -0.0    3.663861    -0.76583
    C    0.0    2.567156    -1.457538
    C    0.0    -2.359156    -1.357538
    C    -0.0    -3.703861    -0.6618299999999999
    C    -0.0    -3.783508    0.693989
    C    0.0    -2.582655    1.382431
    C    0.0    -0.024    1.453369
    C    0.0    0.104    -1.429189
    C    -0.0    1.286055    0.679065
    C    -0.0    1.281471    -0.772804
    C    -0.0    -1.238055    0.675065
    C    0.0    -1.193471    -0.688804
    H    0.0    2.4140710000000003    2.421647
    H    0.0    4.540753    1.217689
    H    -0.0    4.633262    -1.250349
    H    0.0    2.55555    -2.540059
    H    0.0    0.038000000000000006    -2.510266
    H    0.0    -2.37955    -2.440059
    H    0.0    -4.585262    -1.294349
    H    -0.0    -4.732753    1.205689
    H    0.0    -2.562071    2.4656469999999997
    H    -0.859585    -0.128    2.145787
    H    0.859585    -0.128    2.145787

