%NProcShared=48
%mem = 190GB
#n M062X/6-311++G(d,p) TD(NStates=1) EmpiricalDispersion=GD3 SP
 
 SP_-2

1 1
    C    0.0    2.4986550000000003    1.338431
    C    -0.0    3.7275080000000003    0.697989
    C    0.0    3.7178609999999996    -0.6698299999999999
    C    0.0    2.447156    -1.409538
    C    0.0    -2.479156    -1.405538
    C    0.0    -3.649861    -0.75783
    C    0.0    -3.6755079999999998    0.6459889999999999
    C    0.0    -2.486655    1.382431
    C    -0.0    0.024    1.453369
    C    0.0    -0.06999999999999999    -1.429189
    C    0.0    1.232055    0.613065
    C    0.0    1.227471    -0.766804
    C    0.0    -1.292055    0.7410650000000001
    C    -0.0    -1.247471    -0.694804
    H    0.0    2.444071    2.421647
    H    0.0    4.648752999999999    1.259689
    H    0.0    4.6392619999999996    -1.238349
    H    0.0    2.5015500000000004    -2.492059
    H    0.0    -0.112    -2.510266
    H    0.0    -2.43355    -2.4880590000000002
    H    -0.0    -4.579262000000001    -1.306349
    H    0.0    -4.624753    1.163689
    H    0.0    -2.532071    2.4656469999999997
    H    -0.859585    0.136    2.145787
    H    0.859585    0.136    2.145787

