%NProcShared=48
%mem = 190GB
#n M062X/6-311++G(d,p) TD(NStates=1) EmpiricalDispersion=GD3 SP
 
 SP_-2

1 1
    C    0.0    2.472655    1.316431
    C    -0.0    3.717508    0.707989
    C    0.0    3.7338609999999997    -0.6578299999999999
    C    0.0    2.471156    -1.427538
    C    0.0    -2.455156    -1.387538
    C    0.0    -3.633861    -0.76983
    C    0.0    -3.685508    0.6359889999999999
    C    0.0    -2.512655    1.404431
    C    -0.0    0.032    1.453369
    C    0.0    -0.08199999999999999    -1.429189
    C    0.0    1.220055    0.571065
    C    0.0    1.235471    -0.804804
    C    0.0    -1.304055    0.783065
    C    -0.0    -1.239471    -0.656804
    H    0.0    2.390071    2.399647
    H    0.0    4.624752999999999    1.293689
    H    0.0    4.667262    -1.208349
    H    0.0    2.5535500000000004    -2.510059
    H    0.0    -0.174    -2.510266
    H    0.0    -2.38155    -2.470059
    H    -0.0    -4.551262    -1.336349
    H    0.0    -4.648753    1.129689
    H    0.0    -2.5860710000000005    2.487647
    H    -0.859585    0.184    2.145787
    H    0.859585    0.184    2.145787

