%NProcShared=48
%mem = 190GB
#n M062X/6-311++G(d,p) TD(NStates=1) EmpiricalDispersion=GD3 SP
 
 SP_-10

1 1
    C    0.0    2.6266550000000004    1.338431
    C    -0.0    3.8715080000000004    0.7619889999999999
    C    0.0    3.7898609999999997    -0.5418299999999999
    C    0.0    2.287156    -1.345538
    C    0.0    -2.6391560000000003    -1.469538
    C    0.0    -3.577861    -0.88583
    C    0.0    -3.5315079999999996    0.581989
    C    0.0    -2.3586549999999997    1.382431
    C    -0.0    0.088    1.453369
    C    0.0    -0.302    -1.429189
    C    0.0    1.1600549999999998    0.525065
    C    0.0    1.155471    -0.758804
    C    0.0    -1.364055    0.829065
    C    -0.0    -1.319471    -0.702804
    H    0.0    2.484071    2.421647
    H    0.0    4.792752999999999    1.315689
    H    0.0    4.647262    -1.222349
    H    0.0    2.4295500000000003    -2.4280589999999997
    H    0.0    -0.312    -2.510266
    H    0.0    -2.50555    -2.5520590000000003
    H    -0.0    -4.571262000000001    -1.322349
    H    0.0    -4.480753    1.107689
    H    0.0    -2.492071    2.4656469999999997
    H    -0.859585    0.48800000000000004    2.145787
    H    0.859585    0.48800000000000004    2.145787

