%NProcShared=48
%mem = 190GB
#n M062X/6-311++G(d,p) TD(NStates=1) EmpiricalDispersion=GD3 SP
 
 SP_-8

1 1
    C    0.0    2.5946550000000004    1.338431
    C    -0.0    3.8355080000000004    0.745989
    C    0.0    3.771861    -0.57383
    C    0.0    2.327156    -1.361538
    C    0.0    -2.5991560000000002    -1.453538
    C    0.0    -3.5958609999999998    -0.85383
    C    0.0    -3.5675079999999997    0.5979889999999999
    C    0.0    -2.3906549999999998    1.382431
    C    -0.0    0.07200000000000001    1.453369
    C    0.0    -0.244    -1.429189
    C    0.0    1.1780549999999999    0.547065
    C    0.0    1.173471    -0.760804
    C    0.0    -1.346055    0.807065
    C    -0.0    -1.301471    -0.700804
    H    0.0    2.4740710000000004    2.421647
    H    0.0    4.756753    1.301689
    H    0.0    4.645262    -1.226349
    H    0.0    2.44755    -2.4440589999999998
    H    0.0    -0.262    -2.510266
    H    0.0    -2.48755    -2.5360590000000003
    H    -0.0    -4.573262000000001    -1.318349
    H    0.0    -4.516753    1.121689
    H    0.0    -2.502071    2.4656469999999997
    H    -0.859585    0.39999999999999997    2.145787
    H    0.859585    0.39999999999999997    2.145787

