%NProcShared=48
%mem = 190GB
#n M062X/6-311++G(d,p) TD(NStates=1) EmpiricalDispersion=GD3 SP
 
 SP_-2

1 1
    C    0.0    2.4466550000000002    1.2944309999999999
    C    -0.0    3.7075080000000002    0.717989
    C    0.0    3.7498609999999997    -0.6458299999999999
    C    0.0    2.495156    -1.445538
    C    0.0    -2.431156    -1.369538
    C    0.0    -3.617861    -0.78183
    C    0.0    -3.695508    0.6259889999999999
    C    0.0    -2.538655    1.426431
    C    -0.0    0.04    1.453369
    C    0.0    -0.094    -1.429189
    C    0.0    1.2080549999999999    0.529065
    C    0.0    1.243471    -0.842804
    C    0.0    -1.316055    0.825065
    C    -0.0    -1.231471    -0.618804
    H    0.0    2.336071    2.377647
    H    0.0    4.600752999999999    1.3276890000000001
    H    0.0    4.695262    -1.1783489999999999
    H    0.0    2.6055500000000005    -2.528059
    H    0.0    -0.236    -2.510266
    H    0.0    -2.32955    -2.452059
    H    -0.0    -4.523262000000001    -1.366349
    H    0.0    -4.672753    1.095689
    H    0.0    -2.6400710000000003    2.5096469999999997
    H    -0.859585    0.23199999999999998    2.145787
    H    0.859585    0.23199999999999998    2.145787

