%NProcShared=48
%mem = 190GB
#n M062X/6-311++G(d,p) TD(NStates=1) EmpiricalDispersion=GD3 SP
 
 SP_10

1 1
    C    0.0    2.280655    1.316431
    C    0.0    3.501508    0.611989
    C    -0.0    3.625861    -0.84983
    C    0.0    2.7111560000000003    -1.523538
    C    0.0    -2.215156    -1.2915379999999999
    C    -0.0    -3.7418609999999997    -0.57783
    C    -0.0    -3.901508    0.7319889999999999
    C    0.0    -2.7046550000000003    1.404431
    C    0.0    -0.064    1.453369
    C    0.0    0.26599999999999996    -1.429189
    C    -0.0    1.328055    0.703065
    C    -0.0    1.343471    -0.816804
    C    -0.0    -1.1960549999999999    0.651065
    C    0.0    -1.131471    -0.644804
    H    0.0    2.3300710000000002    2.399647
    H    0.0    4.408753    1.209689
    H    -0.0    4.6552620000000005    -1.232349
    H    0.0    2.66155    -2.606059
    H    0.0    0.126    -2.510266
    H    0.0    -2.27355    -2.374059
    H    0.0    -4.563262    -1.312349
    H    -0.0    -4.864752999999999    1.213689
    H    0.0    -2.646071    2.487647
    H    -0.859585    -0.3440000000000001    2.145787
    H    0.859585    -0.3440000000000001    2.145787

