%NProcShared=48
%mem = 190GB
#n M062X/6-311++G(d,p) TD(NStates=1) EmpiricalDispersion=GD3 SP
 
 SP_8

1 1
    C    0.0    2.442655    1.426431
    C    0.0    3.5875079999999997    0.5779889999999999
    C    0.0    3.5638609999999997    -0.87783
    C    -0.0    2.551156    -1.417538
    C    0.0    -2.375156    -1.397538
    C    0.0    -3.803861    -0.5498299999999999
    C    0.0    -3.8155080000000003    0.765989
    C    -0.0    -2.5426550000000003    1.2944309999999999
    C    0.0    -0.088    1.453369
    C    0.0    0.26799999999999996    -1.429189
    C    0.0    1.370055    0.891065
    C    0.0    1.285471    -0.624804
    C    0.0    -1.1540549999999998    0.46306500000000006
    C    0.0    -1.189471    -0.836804
    H    0.0    2.610071    2.5096469999999997
    H    0.0    4.564753    1.0536889999999999
    H    0.0    4.5172620000000006    -1.378349
    H    -0.0    2.38355    -2.5000590000000003
    H    0.0    0.386    -2.510266
    H    0.0    -2.55155    -2.480059
    H    0.0    -4.701262    -1.1663489999999999
    H    0.0    -4.708753    1.3696890000000002
    H    0.0    -2.3660710000000003    2.377647
    H    -0.859585    -0.496    2.145787
    H    0.859585    -0.496    2.145787

