%NProcShared=48
%mem = 190GB
#n M062X/6-311++G(d,p) TD(NStates=1) EmpiricalDispersion=GD3 SP
 
 SP_0

1 1
    C    0.0    2.440655    1.316431
    C    0.0    3.681508    0.691989
    C    -0.0    3.715861    -0.6898299999999999
    C    0.0    2.511156    -1.443538
    C    0.0    -2.415156    -1.371538
    C    -0.0    -3.651861    -0.73783
    C    -0.0    -3.721508    0.6519889999999999
    C    0.0    -2.544655    1.404431
    C    0.0    0.016    1.453369
    C    0.0    -0.024    -1.429189
    C    -0.0    1.238055    0.5930650000000001
    C    -0.0    1.253471    -0.806804
    C    -0.0    -1.286055    0.761065
    C    0.0    -1.221471    -0.654804
    H    0.0    2.380071    2.399647
    H    0.0    4.588753    1.279689
    H    -0.0    4.665262    -1.212349
    H    0.0    2.5715500000000002    -2.526059
    H    0.0    -0.124    -2.510266
    H    0.0    -2.36355    -2.454059
    H    0.0    -4.553262    -1.332349
    H    -0.0    -4.684753    1.143689
    H    0.0    -2.5960710000000002    2.487647
    H    -0.859585    0.096    2.145787
    H    0.859585    0.096    2.145787

