%NProcShared=48
%mem = 190GB
#n M062X/6-311++G(d,p) TD(NStates=1) EmpiricalDispersion=GD3 SP
 
 SP_-12

1 1
    C    -0.0    2.762655    1.426431
    C    0.0    3.947508    0.7379889999999999
    C    0.0    3.743861    -0.55783
    C    0.0    2.151156    -1.2575379999999998
    C    -0.0    -2.7751560000000004    -1.557538
    C    0.0    -3.6238609999999998    -0.8698299999999999
    C    0.0    -3.455508    0.605989
    C    0.0    -2.222655    1.2944309999999999
    C    0.0    0.07200000000000001    1.453369
    C    0.0    -0.312    -1.429189
    C    0.0    1.1900549999999999    0.671065
    C    0.0    1.1054709999999999    -0.604804
    C    0.0    -1.334055    0.683065
    C    0.0    -1.369471    -0.856804
    H    -0.0    2.710071    2.5096469999999997
    H    -0.0    4.924753    1.193689
    H    0.0    4.537262    -1.338349
    H    0.0    2.20355    -2.340059
    H    0.0    -0.11399999999999999    -2.510266
    H    -0.0    -2.7315500000000004    -2.640059
    H    0.0    -4.681262    -1.206349
    H    0.0    -4.348752999999999    1.229689
    H    -0.0    -2.266071    2.377647
    H    -0.859585    0.384    2.145787
    H    0.859585    0.384    2.145787

