%NProcShared=48
%mem = 190GB
#n M062X/6-311++G(d,p) TD(NStates=1) EmpiricalDispersion=GD3 SP
 
 SP_12

1 1
    C    0.0    2.274655    1.338431
    C    0.0    3.475508    0.585989
    C    -0.0    3.5918609999999997    -0.8938299999999999
    C    0.0    2.7271560000000004    -1.521538
    C    0.0    -2.199156    -1.2935379999999999
    C    -0.0    -3.775861    -0.53383
    C    -0.0    -3.927508    0.7579889999999999
    C    0.0    -2.710655    1.382431
    C    0.0    -0.088    1.453369
    C    0.0    0.33599999999999997    -1.429189
    C    -0.0    1.358055    0.767065
    C    -0.0    1.353471    -0.780804
    C    -0.0    -1.1660549999999998    0.5870650000000001
    C    0.0    -1.1214709999999999    -0.680804
    H    0.0    2.3740710000000003    2.421647
    H    0.0    4.3967529999999995    1.161689
    H    -0.0    4.625262    -1.266349
    H    0.0    2.6275500000000003    -2.604059
    H    0.0    0.238    -2.510266
    H    0.0    -2.30755    -2.376059
    H    0.0    -4.593262    -1.278349
    H    -0.0    -4.876753    1.261689
    H    0.0    -2.602071    2.4656469999999997
    H    -0.859585    -0.48000000000000004    2.145787
    H    0.859585    -0.48000000000000004    2.145787

