%NProcShared=48
%mem = 190GB
#n M062X/6-311++G(d,p) TD(NStates=1) EmpiricalDispersion=GD3 SP
 
 SP_14

1 1
    C    0.0    2.190655    1.2944309999999999
    C    0.0    3.419508    0.589989
    C    -0.0    3.605861    -0.9018299999999999
    C    0.0    2.815156    -1.573538
    C    0.0    -2.1111560000000003    -1.2415379999999998
    C    -0.0    -3.7618609999999997    -0.5258299999999999
    C    -0.0    -3.983508    0.7539889999999999
    C    0.0    -2.794655    1.426431
    C    0.0    -0.08800000000000002    1.453369
    C    0.0    0.37    -1.429189
    C    -0.0    1.352055    0.705065
    C    -0.0    1.3874710000000001    -0.858804
    C    -0.0    -1.1720549999999998    0.649065
    C    0.0    -1.0874709999999999    -0.602804
    H    0.0    2.2560710000000004    2.377647
    H    0.0    4.312753    1.215689
    H    -0.0    4.679262    -1.210349
    H    0.0    2.74955    -2.656059
    H    0.0    0.16399999999999998    -2.510266
    H    0.0    -2.18555    -2.324059
    H    0.0    -4.539262000000001    -1.334349
    H    -0.0    -4.9607529999999995    1.207689
    H    0.0    -2.720071    2.5096469999999997
    H    -0.859585    -0.472    2.145787
    H    0.859585    -0.472    2.145787

