%NProcShared=48
%mem = 190GB
#n M062X/6-311++G(d,p) TD(NStates=1) EmpiricalDispersion=GD3 SP
 
 SP_14

1 1
    C    0.0    2.216655    1.316431
    C    0.0    3.429508    0.579989
    C    -0.0    3.589861    -0.9138299999999999
    C    0.0    2.791156    -1.555538
    C    0.0    -2.1351560000000003    -1.2595379999999998
    C    -0.0    -3.7778609999999997    -0.5138299999999999
    C    -0.0    -3.9735080000000003    0.7639889999999999
    C    0.0    -2.7686550000000003    1.404431
    C    0.0    -0.09600000000000002    1.453369
    C    0.0    0.38199999999999995    -1.429189
    C    -0.0    1.364055    0.7470650000000001
    C    -0.0    1.3794710000000001    -0.820804
    C    -0.0    -1.1600549999999998    0.607065
    C    0.0    -1.0954709999999999    -0.640804
    H    0.0    2.310071    2.399647
    H    0.0    4.336753    1.181689
    H    -0.0    4.651262    -1.240349
    H    0.0    2.69755    -2.638059
    H    0.0    0.22599999999999998    -2.510266
    H    0.0    -2.23755    -2.342059
    H    0.0    -4.567262    -1.304349
    H    -0.0    -4.9367529999999995    1.241689
    H    0.0    -2.666071    2.487647
    H    -0.859585    -0.52    2.145787
    H    0.859585    -0.52    2.145787

