%NProcShared=48
%mem = 190GB
#n M062X/6-311++G(d,p) TD(NStates=1) EmpiricalDispersion=GD3 SP
 
 SP_14

1 1
    C    0.0    2.242655    1.338431
    C    0.0    3.439508    0.569989
    C    -0.0    3.573861    -0.9258299999999999
    C    0.0    2.767156    -1.537538
    C    0.0    -2.1591560000000003    -1.2775379999999998
    C    -0.0    -3.7938609999999997    -0.5018299999999999
    C    -0.0    -3.963508    0.7739889999999999
    C    0.0    -2.742655    1.382431
    C    0.0    -0.10400000000000001    1.453369
    C    0.0    0.39399999999999996    -1.429189
    C    -0.0    1.376055    0.789065
    C    -0.0    1.371471    -0.782804
    C    -0.0    -1.1480549999999998    0.565065
    C    0.0    -1.1034709999999999    -0.678804
    H    0.0    2.3640710000000005    2.421647
    H    0.0    4.360753    1.147689
    H    -0.0    4.6232619999999995    -1.270349
    H    0.0    2.64555    -2.620059
    H    0.0    0.288    -2.510266
    H    0.0    -2.28955    -2.360059
    H    0.0    -4.595262000000001    -1.274349
    H    -0.0    -4.9127529999999995    1.275689
    H    0.0    -2.612071    2.4656469999999997
    H    -0.859585    -0.568    2.145787
    H    0.859585    -0.568    2.145787

