%NProcShared=48
%mem = 190GB
#n M062X/6-311++G(d,p) TD(NStates=1) EmpiricalDispersion=GD3 SP
 
 SP_12

1 1
    C    0.0    2.352655    1.404431
    C    0.0    3.505508    0.555989
    C    0.0    3.5438609999999997    -0.9298299999999999
    C    -0.0    2.6551560000000003    -1.467538
    C    0.0    -2.271156    -1.347538
    C    0.0    -3.823861    -0.49783
    C    0.0    -3.897508    0.7879889999999999
    C    -0.0    -2.632655    1.316431
    C    0.0    -0.112    1.453369
    C    0.0    0.372    -1.429189
    C    0.0    1.394055    0.893065
    C    0.0    1.329471    -0.6668040000000001
    C    0.0    -1.1300549999999998    0.46106500000000006
    C    0.0    -1.145471    -0.794804
    H    0.0    2.536071    2.487647
    H    0.0    4.4687529999999995    1.0596889999999999
    H    0.0    4.541262000000001    -1.356349
    H    -0.0    2.47155    -2.550059
    H    0.0    0.424    -2.510266
    H    0.0    -2.46355    -2.430059
    H    0.0    -4.677262    -1.1883489999999999
    H    0.0    -4.804753    1.3636890000000002
    H    0.0    -2.440071    2.399647
    H    -0.859585    -0.624    2.145787
    H    0.859585    -0.624    2.145787

