%NProcShared=48
%mem = 190GB
#n M062X/6-311++G(d,p) TD(NStates=1) EmpiricalDispersion=GD3 SP
 
 SP_-10

1 1
    C    0.0    2.5746550000000004    1.2944309999999999
    C    -0.0    3.8515080000000004    0.7819889999999999
    C    0.0    3.8218609999999997    -0.5178299999999999
    C    0.0    2.335156    -1.381538
    C    0.0    -2.5911560000000002    -1.433538
    C    0.0    -3.545861    -0.90983
    C    0.0    -3.5515079999999997    0.561989
    C    0.0    -2.4106549999999998    1.426431
    C    -0.0    0.10400000000000001    1.453369
    C    0.0    -0.32599999999999996    -1.429189
    C    0.0    1.1360549999999998    0.44106500000000004
    C    0.0    1.171471    -0.834804
    C    0.0    -1.388055    0.913065
    C    -0.0    -1.303471    -0.626804
    H    0.0    2.376071    2.377647
    H    0.0    4.744752999999999    1.3836890000000002
    H    0.0    4.703262    -1.1623489999999999
    H    0.0    2.5335500000000004    -2.4640589999999998
    H    0.0    -0.436    -2.510266
    H    0.0    -2.40155    -2.5160590000000003
    H    -0.0    -4.515262000000001    -1.382349
    H    0.0    -4.528753    1.0396889999999999
    H    0.0    -2.6000710000000002    2.5096469999999997
    H    -0.859585    0.5840000000000001    2.145787
    H    0.859585    0.5840000000000001    2.145787

