%NProcShared=48
%mem = 190GB
#n M062X/6-311++G(d,p) TD(NStates=1) EmpiricalDispersion=GD3 SP
 
 SP_-10

1 1
    C    0.0    2.600655    1.316431
    C    -0.0    3.861508    0.7719889999999999
    C    0.0    3.8058609999999997    -0.5298299999999999
    C    0.0    2.311156    -1.363538
    C    0.0    -2.6151560000000003    -1.451538
    C    0.0    -3.561861    -0.89783
    C    0.0    -3.541508    0.571989
    C    0.0    -2.384655    1.404431
    C    -0.0    0.096    1.453369
    C    0.0    -0.314    -1.429189
    C    0.0    1.1480549999999998    0.4830650000000001
    C    0.0    1.163471    -0.796804
    C    0.0    -1.376055    0.871065
    C    -0.0    -1.311471    -0.6648040000000001
    H    0.0    2.430071    2.399647
    H    0.0    4.768752999999999    1.3496890000000001
    H    0.0    4.675262    -1.1923489999999999
    H    0.0    2.4815500000000004    -2.446059
    H    0.0    -0.374    -2.510266
    H    0.0    -2.45355    -2.534059
    H    -0.0    -4.543262    -1.352349
    H    0.0    -4.504753    1.073689
    H    0.0    -2.5460710000000004    2.487647
    H    -0.859585    0.536    2.145787
    H    0.859585    0.536    2.145787

