%NProcShared=48
%mem = 190GB
#n M062X/6-311++G(d,p) TD(NStates=1) EmpiricalDispersion=GD3 SP
 
 SP_-10

1 1
    C    -0.0    2.678655    1.382431
    C    0.0    3.891508    0.7419889999999999
    C    0.0    3.7578609999999997    -0.5658299999999999
    C    0.0    2.239156    -1.3095379999999999
    C    -0.0    -2.6871560000000003    -1.505538
    C    0.0    -3.609861    -0.86183
    C    0.0    -3.511508    0.601989
    C    0.0    -2.306655    1.338431
    C    0.0    0.07200000000000001    1.453369
    C    0.0    -0.27799999999999997    -1.429189
    C    0.0    1.1840549999999999    0.6090650000000001
    C    0.0    1.139471    -0.682804
    C    0.0    -1.340055    0.745065
    C    0.0    -1.335471    -0.778804
    H    -0.0    2.592071    2.4656469999999997
    H    -0.0    4.840752999999999    1.247689
    H    0.0    4.591262    -1.282349
    H    0.0    2.3255500000000002    -2.392059
    H    0.0    -0.188    -2.510266
    H    -0.0    -2.60955    -2.588059
    H    0.0    -4.627262    -1.262349
    H    0.0    -4.432753    1.175689
    H    -0.0    -2.3840710000000005    2.421647
    H    -0.859585    0.39200000000000007    2.145787
    H    0.859585    0.39200000000000007    2.145787

