%NProcShared=48
%mem = 190GB
#n M062X/6-311++G(d,p) TD(NStates=1) EmpiricalDispersion=GD3 SP
 
 SP_8

1 1
    C    0.0    2.312655    1.316431
    C    0.0    3.537508    0.6279889999999999
    C    -0.0    3.643861    -0.81783
    C    0.0    2.6711560000000003    -1.507538
    C    0.0    -2.255156    -1.3075379999999999
    C    -0.0    -3.723861    -0.60983
    C    -0.0    -3.865508    0.715989
    C    0.0    -2.6726550000000002    1.404431
    C    0.0    -0.048    1.453369
    C    0.0    0.208    -1.429189
    C    -0.0    1.310055    0.681065
    C    -0.0    1.325471    -0.814804
    C    -0.0    -1.2140549999999999    0.673065
    C    0.0    -1.149471    -0.646804
    H    0.0    2.340071    2.399647
    H    0.0    4.4447529999999995    1.223689
    H    -0.0    4.657262    -1.228349
    H    0.0    2.6435500000000003    -2.590059
    H    0.0    0.07600000000000001    -2.510266
    H    0.0    -2.29155    -2.390059
    H    0.0    -4.561262    -1.316349
    H    -0.0    -4.828753    1.199689
    H    0.0    -2.6360710000000003    2.487647
    H    -0.859585    -0.256    2.145787
    H    0.859585    -0.256    2.145787

