%NProcShared=48
%mem = 190GB
#n M062X/6-311++G(d,p) TD(NStates=1) EmpiricalDispersion=GD3 SP
 
 SP_-8

1 1
    C    -0.0    2.646655    1.382431
    C    0.0    3.855508    0.725989
    C    0.0    3.739861    -0.59783
    C    0.0    2.279156    -1.3255379999999999
    C    -0.0    -2.6471560000000003    -1.489538
    C    0.0    -3.627861    -0.82983
    C    0.0    -3.547508    0.6179889999999999
    C    0.0    -2.338655    1.338431
    C    0.0    0.056    1.453369
    C    0.0    -0.21999999999999997    -1.429189
    C    0.0    1.2020549999999999    0.6310650000000001
    C    0.0    1.157471    -0.684804
    C    0.0    -1.322055    0.723065
    C    0.0    -1.317471    -0.776804
    H    -0.0    2.582071    2.4656469999999997
    H    -0.0    4.804753    1.233689
    H    0.0    4.589262000000001    -1.286349
    H    0.0    2.34355    -2.408059
    H    0.0    -0.138    -2.510266
    H    -0.0    -2.5915500000000002    -2.572059
    H    0.0    -4.629262    -1.258349
    H    0.0    -4.4687529999999995    1.189689
    H    -0.0    -2.3940710000000003    2.421647
    H    -0.859585    0.304    2.145787
    H    0.859585    0.304    2.145787

