%NProcShared=48
%mem = 190GB
#n M062X/6-311++G(d,p) TD(NStates=1) EmpiricalDispersion=GD3 SP
 
 SP_4

1 1
    C    0.0    2.350655    1.2944309999999999
    C    0.0    3.599508    0.669989
    C    -0.0    3.695861    -0.74183
    C    0.0    2.6151560000000003    -1.493538
    C    0.0    -2.311156    -1.3215379999999999
    C    -0.0    -3.671861    -0.6858299999999999
    C    -0.0    -3.803508    0.673989
    C    0.0    -2.634655    1.426431
    C    0.0    -0.008    1.453369
    C    0.0    0.07999999999999999    -1.429189
    C    -0.0    1.262055    0.5950650000000001
    C    -0.0    1.297471    -0.848804
    C    -0.0    -1.262055    0.759065
    C    0.0    -1.177471    -0.612804
    H    0.0    2.306071    2.377647
    H    0.0    4.4927529999999996    1.285689
    H    -0.0    4.689262    -1.1903489999999999
    H    0.0    2.6595500000000003    -2.576059
    H    0.0    -0.086    -2.510266
    H    0.0    -2.27555    -2.404059
    H    0.0    -4.529262    -1.354349
    H    -0.0    -4.780753    1.137689
    H    0.0    -2.670071    2.5096469999999997
    H    -0.859585    -0.032    2.145787
    H    0.859585    -0.032    2.145787

