%NProcShared=48
%mem = 190GB
#n M062X/6-311++G(d,p) TD(NStates=1) EmpiricalDispersion=GD3 SP
 
 SP_10

1 1
    C    0.0    2.254655    1.2944309999999999
    C    0.0    3.491508    0.621989
    C    -0.0    3.641861    -0.83783
    C    0.0    2.7351560000000004    -1.541538
    C    0.0    -2.191156    -1.2735379999999998
    C    -0.0    -3.7258609999999996    -0.58983
    C    -0.0    -3.911508    0.7219889999999999
    C    0.0    -2.730655    1.426431
    C    0.0    -0.056    1.453369
    C    0.0    0.254    -1.429189
    C    -0.0    1.316055    0.661065
    C    -0.0    1.351471    -0.854804
    C    -0.0    -1.2080549999999999    0.693065
    C    0.0    -1.1234709999999999    -0.606804
    H    0.0    2.2760710000000004    2.377647
    H    0.0    4.384753    1.243689
    H    -0.0    4.683262    -1.202349
    H    0.0    2.71355    -2.624059
    H    0.0    0.064    -2.510266
    H    0.0    -2.22155    -2.356059
    H    0.0    -4.535262    -1.342349
    H    -0.0    -4.8887529999999995    1.179689
    H    0.0    -2.700071    2.5096469999999997
    H    -0.859585    -0.29600000000000004    2.145787
    H    0.859585    -0.29600000000000004    2.145787

