%NProcShared=48
%mem = 190GB
#n M062X/6-311++G(d,p) TD(NStates=1) EmpiricalDispersion=GD3 SP
 
 SP_-14

1 1
    C    0.0    2.664655    1.316431
    C    -0.0    3.9335080000000002    0.803989
    C    0.0    3.8418609999999997    -0.4658299999999999
    C    0.0    2.2311560000000004    -1.3315379999999999
    C    0.0    -2.695156    -1.483538
    C    0.0    -3.525861    -0.96183
    C    0.0    -3.469508    0.5399889999999999
    C    0.0    -2.320655    1.404431
    C    -0.0    0.128    1.453369
    C    0.0    -0.43    -1.429189
    C    0.0    1.1120549999999998    0.43906500000000004
    C    0.0    1.127471    -0.792804
    C    0.0    -1.412055    0.915065
    C    -0.0    -1.347471    -0.6688040000000001
    H    0.0    2.450071    2.399647
    H    0.0    4.840752999999999    1.3776890000000002
    H    0.0    4.6792620000000005    -1.1843489999999999
    H    0.0    2.4455500000000003    -2.414059
    H    0.0    -0.474    -2.510266
    H    0.0    -2.48955    -2.566059
    H    -0.0    -4.539262    -1.360349
    H    0.0    -4.432753    1.0456889999999999
    H    0.0    -2.5260710000000004    2.487647
    H    -0.859585    0.712    2.145787
    H    0.859585    0.712    2.145787

