%NProcShared=48
%mem = 190GB
#n M062X/6-311++G(d,p) TD(NStates=1) EmpiricalDispersion=GD3 SP
 
 SP_-12

1 1
    C    -0.0    2.7366550000000003    1.404431
    C    0.0    3.9375080000000002    0.7479889999999999
    C    0.0    3.759861    -0.54583
    C    0.0    2.175156    -1.2755379999999998
    C    -0.0    -2.7511560000000004    -1.539538
    C    0.0    -3.6078609999999998    -0.8818299999999999
    C    0.0    -3.465508    0.595989
    C    0.0    -2.248655    1.316431
    C    0.0    0.08    1.453369
    C    0.0    -0.32399999999999995    -1.429189
    C    0.0    1.1780549999999999    0.629065
    C    0.0    1.1134709999999999    -0.642804
    C    0.0    -1.346055    0.7250650000000001
    C    0.0    -1.361471    -0.818804
    H    -0.0    2.6560710000000003    2.487647
    H    -0.0    4.900753    1.227689
    H    0.0    4.565262    -1.308349
    H    0.0    2.25555    -2.358059
    H    0.0    -0.176    -2.510266
    H    -0.0    -2.6795500000000003    -2.622059
    H    0.0    -4.653262000000001    -1.236349
    H    0.0    -4.3727529999999994    1.195689
    H    -0.0    -2.320071    2.399647
    H    -0.859585    0.43200000000000005    2.145787
    H    0.859585    0.43200000000000005    2.145787

