%NProcShared=32
%mem = 128GB
#n M062X/6-311++G(d,p) TD(NStates=1) EmpiricalDispersion=GD3 SP
 
 SP_5

1 1
    C    0.0    2.500655    1.3654309999999998
    C    0.0    3.635508    0.6509889999999999
    C    -0.0    3.6558610000000002    -0.75083
    C    -0.0    2.513156    -1.4385379999999999
    C    0.0    -2.4131560000000003    -1.376538
    C    -0.0    -3.7118609999999994    -0.6768299999999999
    C    0.0    -3.767508    0.692989
    C    0.0    -2.484655    1.355431
    C    0.0    -0.056    1.453369
    C    0.0    -0.022000000000000006    -1.429189
    C    0.0    1.3050549999999999    0.6240650000000001
    C    -0.0    1.300471    -0.642804
    C    -0.0    -1.219055    0.730065
    C    0.0    -1.174471    -0.818804
    H    0.0    2.3230710000000006    2.443647
    H    0.0    4.520753    1.272689
    H    -0.0    4.537262    -1.376349
    H    0.0    2.6605499999999997    -2.516059
    H    0.0    0.125    -2.510266
    H    0.0    -2.2745500000000005    -2.464059
    H    0.0    -4.681262    -1.1683489999999999
    H    -0.0    -4.752752999999999    1.150689
    H    0.0    -2.6530709999999997    2.443647
    H    -0.859585    -0.218    2.145787
    H    0.859585    -0.218    2.145787

