%NProcShared=32
%mem = 128GB
#n M062X/6-311++G(d,p) TD(NStates=1) EmpiricalDispersion=GD3 SP
 
 SP_3

1 1
    C    0.0    2.452655    1.3634309999999998
    C    0.0    3.611508    0.6369889999999999
    C    -0.0    3.641861    -0.7808299999999999
    C    -0.0    2.549156    -1.4485379999999999
    C    0.0    -2.3771560000000003    -1.366538
    C    -0.0    -3.7258609999999996    -0.64683
    C    0.0    -3.791508    0.706989
    C    0.0    -2.532655    1.357431
    C    0.0    -0.056    1.453369
    C    0.0    0.06799999999999999    -1.429189
    C    0.0    1.3130549999999999    0.676065
    C    -0.0    1.300471    -0.680804
    C    -0.0    -1.211055    0.678065
    C    0.0    -1.174471    -0.780804
    H    0.0    2.375071    2.443647
    H    0.0    4.516753    1.228689
    H    -0.0    4.563262000000001    -1.340349
    H    0.0    2.60855    -2.528059
    H    0.0    0.14500000000000002    -2.510266
    H    0.0    -2.32655    -2.452059
    H    0.0    -4.655262    -1.204349
    H    -0.0    -4.756753    1.1946890000000001
    H    0.0    -2.601071    2.443647
    H    -0.859585    -0.254    2.145787
    H    0.859585    -0.254    2.145787

