%NProcShared=32
%mem = 128GB
#n M062X/6-311++G(d,p) TD(NStates=1) EmpiricalDispersion=GD3 SP
 
 SP_4

1 1
    C    0.0    2.476655    1.364431
    C    0.0    3.623508    0.6439889999999999
    C    -0.0    3.6488609999999997    -0.76583
    C    -0.0    2.531156    -1.443538
    C    0.0    -2.395156    -1.371538
    C    -0.0    -3.718861    -0.6618299999999999
    C    0.0    -3.779508    0.699989
    C    0.0    -2.508655    1.356431
    C    0.0    -0.056    1.453369
    C    0.0    0.022999999999999993    -1.429189
    C    0.0    1.3090549999999999    0.650065
    C    -0.0    1.300471    -0.6618040000000001
    C    -0.0    -1.215055    0.704065
    C    0.0    -1.174471    -0.799804
    H    0.0    2.349071    2.443647
    H    0.0    4.518752999999999    1.2506890000000002
    H    -0.0    4.550262    -1.358349
    H    0.0    2.6345500000000004    -2.522059
    H    0.0    0.135    -2.510266
    H    0.0    -2.30055    -2.458059
    H    0.0    -4.668262    -1.1863489999999999
    H    -0.0    -4.754753    1.1726889999999999
    H    0.0    -2.6270710000000004    2.443647
    H    -0.859585    -0.23600000000000002    2.145787
    H    0.859585    -0.23600000000000002    2.145787

