%NProcShared=32
%mem = 128GB
#n M062X/6-311++G(d,p) TD(NStates=1) EmpiricalDispersion=GD3 SP
 
 SP_1

1 1
    C    0.0    2.420655    1.3614309999999998
    C    0.0    3.6055080000000004    0.6309889999999999
    C    -0.0    3.636861    -0.7948299999999999
    C    -0.0    2.565156    -1.4505379999999999
    C    0.0    -2.3611560000000003    -1.364538
    C    -0.0    -3.7308609999999995    -0.63283
    C    0.0    -3.7975079999999997    0.712989
    C    0.0    -2.564655    1.359431
    C    0.0    -0.048    1.453369
    C    0.0    0.129    -1.429189
    C    0.0    1.3120549999999997    0.7170650000000001
    C    -0.0    1.2914709999999998    -0.717804
    C    -0.0    -1.212055    0.637065
    C    0.0    -1.1834710000000002    -0.743804
    H    0.0    2.432071    2.443647
    H    0.0    4.530753    1.191689
    H    -0.0    4.590262    -1.302349
    H    0.0    2.54755    -2.532059
    H    0.0    0.14    -2.510266
    H    0.0    -2.38755    -2.448059
    H    0.0    -4.628262    -1.242349
    H    -0.0    -4.7427529999999996    1.231689
    H    0.0    -2.544071    2.443647
    H    -0.859585    -0.24600000000000002    2.145787
    H    0.859585    -0.24600000000000002    2.145787

