%NProcShared=32
%mem = 128GB
#n M062X/6-311++G(d,p) TD(NStates=1) EmpiricalDispersion=GD3 SP
 
 SP_1

1 1
    C    0.0    2.484655    1.3614309999999998
    C    0.0    3.6775080000000004    0.6629889999999999
    C    -0.0    3.672861    -0.73083
    C    -0.0    2.485156    -1.4185379999999999
    C    0.0    -2.4411560000000003    -1.396538
    C    -0.0    -3.6948609999999995    -0.69683
    C    0.0    -3.7255079999999996    0.680989
    C    0.0    -2.500655    1.359431
    C    0.0    -0.016    1.453369
    C    0.0    0.012999999999999998    -1.429189
    C    0.0    1.2760549999999997    0.673065
    C    -0.0    1.2554709999999998    -0.713804
    C    -0.0    -1.2480550000000001    0.681065
    C    0.0    -1.2194710000000002    -0.747804
    H    0.0    2.452071    2.443647
    H    0.0    4.602753    1.219689
    H    -0.0    4.594262    -1.294349
    H    0.0    2.51155    -2.500059
    H    0.0    0.04    -2.510266
    H    0.0    -2.42355    -2.4800590000000002
    H    0.0    -4.624262000000001    -1.250349
    H    -0.0    -4.6707529999999995    1.203689
    H    0.0    -2.524071    2.443647
    H    -0.859585    -0.07    2.145787
    H    0.859585    -0.07    2.145787

