%NProcShared=32
%mem = 128GB
#n M062X/6-311++G(d,p) TD(NStates=1) EmpiricalDispersion=GD3 SP
 
 SP_2

1 1
    C    0.0    2.428655    1.362431
    C    0.0    3.599508    0.6299889999999999
    C    -0.0    3.634861    -0.7958299999999999
    C    -0.0    2.567156    -1.453538
    C    0.0    -2.359156    -1.361538
    C    -0.0    -3.7328609999999998    -0.63183
    C    0.0    -3.803508    0.713989
    C    0.0    -2.556655    1.358431
    C    0.0    -0.056    1.453369
    C    0.0    0.11299999999999999    -1.429189
    C    0.0    1.3170549999999999    0.702065
    C    -0.0    1.300471    -0.699804
    C    -0.0    -1.207055    0.652065
    C    0.0    -1.174471    -0.761804
    H    0.0    2.4010710000000004    2.443647
    H    0.0    4.514753    1.2066890000000001
    H    -0.0    4.576262000000001    -1.322349
    H    0.0    2.58255    -2.534059
    H    0.0    0.155    -2.510266
    H    0.0    -2.3525500000000004    -2.446059
    H    0.0    -4.642262    -1.222349
    H    -0.0    -4.758753    1.216689
    H    0.0    -2.575071    2.443647
    H    -0.859585    -0.272    2.145787
    H    0.859585    -0.272    2.145787

