%NProcShared=32
%mem = 128GB
#n M062X/6-311++G(d,p) TD(NStates=1) EmpiricalDispersion=GD3 SP
 
 SP_3

1 1
    C    0.0    2.484655    1.3634309999999998
    C    0.0    3.647508    0.6529889999999999
    C    -0.0    3.6598610000000003    -0.74883
    C    -0.0    2.509156    -1.4325379999999999
    C    0.0    -2.4171560000000003    -1.382538
    C    -0.0    -3.7078609999999994    -0.6788299999999999
    C    0.0    -3.755508    0.690989
    C    0.0    -2.500655    1.357431
    C    0.0    -0.04    1.453369
    C    0.0    0.009999999999999995    -1.429189
    C    0.0    1.2950549999999998    0.654065
    C    -0.0    1.282471    -0.678804
    C    -0.0    -1.229055    0.700065
    C    0.0    -1.192471    -0.782804
    H    0.0    2.3850710000000004    2.443647
    H    0.0    4.552753    1.242689
    H    -0.0    4.565262000000001    -1.336349
    H    0.0    2.59055    -2.512059
    H    0.0    0.095    -2.510266
    H    0.0    -2.3445500000000004    -2.4680590000000002
    H    0.0    -4.653262    -1.208349
    H    -0.0    -4.720752999999999    1.180689
    H    0.0    -2.591071    2.443647
    H    -0.859585    -0.16599999999999998    2.145787
    H    0.859585    -0.16599999999999998    2.145787

