%NProcShared=32
%mem = 128GB
#n M062X/6-311++G(d,p) TD(NStates=1) EmpiricalDispersion=GD3 SP
 
 SP_1

1 1
    C    0.0    2.452655    1.3614309999999998
    C    0.0    3.6415080000000004    0.6469889999999999
    C    -0.0    3.654861    -0.76283
    C    -0.0    2.525156    -1.4345379999999999
    C    0.0    -2.4011560000000003    -1.380538
    C    -0.0    -3.7128609999999997    -0.6648299999999999
    C    0.0    -3.7615079999999996    0.696989
    C    0.0    -2.532655    1.359431
    C    0.0    -0.032    1.453369
    C    0.0    0.071    -1.429189
    C    0.0    1.2940549999999997    0.695065
    C    -0.0    1.2734709999999998    -0.715804
    C    -0.0    -1.2300550000000001    0.659065
    C    0.0    -1.2014710000000002    -0.745804
    H    0.0    2.442071    2.443647
    H    0.0    4.566752999999999    1.205689
    H    -0.0    4.592262    -1.298349
    H    0.0    2.5295500000000004    -2.516059
    H    0.0    0.09    -2.510266
    H    0.0    -2.40555    -2.464059
    H    0.0    -4.6262620000000005    -1.246349
    H    -0.0    -4.706753    1.217689
    H    0.0    -2.5340710000000004    2.443647
    H    -0.859585    -0.158    2.145787
    H    0.859585    -0.158    2.145787

