%NProcShared=32
%mem = 128GB
#n M062X/6-311++G(d,p) TD(NStates=1) EmpiricalDispersion=GD3 SP
 
 SP_2

1 1
    C    0.0    2.460655    1.362431
    C    0.0    3.635508    0.6459889999999999
    C    -0.0    3.6528609999999997    -0.76383
    C    -0.0    2.527156    -1.437538
    C    0.0    -2.399156    -1.377538
    C    -0.0    -3.714861    -0.6638299999999999
    C    0.0    -3.767508    0.697989
    C    0.0    -2.524655    1.358431
    C    0.0    -0.04    1.453369
    C    0.0    0.05499999999999999    -1.429189
    C    0.0    1.2990549999999998    0.680065
    C    -0.0    1.282471    -0.697804
    C    -0.0    -1.225055    0.674065
    C    0.0    -1.192471    -0.763804
    H    0.0    2.411071    2.443647
    H    0.0    4.550752999999999    1.2206890000000001
    H    -0.0    4.5782620000000005    -1.318349
    H    0.0    2.56455    -2.518059
    H    0.0    0.105    -2.510266
    H    0.0    -2.37055    -2.462059
    H    0.0    -4.640262    -1.226349
    H    -0.0    -4.722753    1.202689
    H    0.0    -2.565071    2.443647
    H    -0.859585    -0.184    2.145787
    H    0.859585    -0.184    2.145787

