%NProcShared=32
%mem = 128GB
#n M062X/6-311++G(d,p) TD(NStates=1) EmpiricalDispersion=GD3 SP
 
 SP_4

1 1
    C    0.0    2.460655    1.364431
    C    0.0    3.605508    0.6359889999999999
    C    -0.0    3.639861    -0.78183
    C    -0.0    2.551156    -1.451538
    C    0.0    -2.375156    -1.363538
    C    -0.0    -3.727861    -0.6458299999999999
    C    0.0    -3.797508    0.707989
    C    0.0    -2.524655    1.356431
    C    0.0    -0.064    1.453369
    C    0.0    0.05199999999999999    -1.429189
    C    0.0    1.318055    0.661065
    C    -0.0    1.309471    -0.6628040000000001
    C    -0.0    -1.2060549999999999    0.693065
    C    0.0    -1.165471    -0.798804
    H    0.0    2.344071    2.443647
    H    0.0    4.500753    1.243689
    H    -0.0    4.549262000000001    -1.360349
    H    0.0    2.6435500000000003    -2.530059
    H    0.0    0.16    -2.510266
    H    0.0    -2.29155    -2.450059
    H    0.0    -4.669262    -1.1843489999999999
    H    -0.0    -4.772753    1.179689
    H    0.0    -2.6320710000000003    2.443647
    H    -0.859585    -0.28    2.145787
    H    0.859585    -0.28    2.145787

