%NProcShared=32
%mem = 128GB
#n M062X/6-311++G(d,p) TD(NStates=1) EmpiricalDispersion=GD3 SP
 
 SP_4

1 1
    C    0.0    2.492655    1.364431
    C    0.0    3.641508    0.6519889999999999
    C    -0.0    3.657861    -0.74983
    C    -0.0    2.511156    -1.435538
    C    0.0    -2.415156    -1.379538
    C    -0.0    -3.7098609999999996    -0.6778299999999999
    C    0.0    -3.761508    0.691989
    C    0.0    -2.492655    1.356431
    C    0.0    -0.048    1.453369
    C    0.0    -0.006000000000000005    -1.429189
    C    0.0    1.300055    0.639065
    C    -0.0    1.291471    -0.6608040000000001
    C    -0.0    -1.224055    0.7150650000000001
    C    0.0    -1.183471    -0.800804
    H    0.0    2.3540710000000002    2.443647
    H    0.0    4.536753    1.257689
    H    -0.0    4.551262    -1.356349
    H    0.0    2.62555    -2.514059
    H    0.0    0.11    -2.510266
    H    0.0    -2.30955    -2.466059
    H    0.0    -4.667262    -1.1883489999999999
    H    -0.0    -4.736752999999999    1.165689
    H    0.0    -2.622071    2.443647
    H    -0.859585    -0.192    2.145787
    H    0.859585    -0.192    2.145787

