%NProcShared=32
%mem = 128GB
#n M062X/6-311++G(d,p) TD(NStates=1) EmpiricalDispersion=GD3 SP
 
 SP_5

1 1
    C    0.0    2.516655    1.3654309999999998
    C    0.0    3.6535080000000004    0.6589889999999999
    C    -0.0    3.664861    -0.73483
    C    -0.0    2.493156    -1.4305379999999999
    C    0.0    -2.4331560000000003    -1.384538
    C    -0.0    -3.7028609999999995    -0.69283
    C    0.0    -3.7495079999999996    0.684989
    C    0.0    -2.468655    1.355431
    C    0.0    -0.048    1.453369
    C    0.0    -0.051000000000000004    -1.429189
    C    0.0    1.2960549999999997    0.6130650000000001
    C    -0.0    1.2914709999999998    -0.641804
    C    -0.0    -1.2280550000000001    0.741065
    C    0.0    -1.1834710000000002    -0.819804
    H    0.0    2.3280710000000004    2.443647
    H    0.0    4.538753    1.279689
    H    -0.0    4.538262    -1.374349
    H    0.0    2.65155    -2.508059
    H    0.0    0.1    -2.510266
    H    0.0    -2.2835500000000004    -2.4720590000000002
    H    0.0    -4.680262000000001    -1.1703489999999999
    H    -0.0    -4.7347529999999995    1.143689
    H    0.0    -2.648071    2.443647
    H    -0.859585    -0.174    2.145787
    H    0.859585    -0.174    2.145787

