%NProcShared=32
%mem = 128GB
#n M062X/6-311++G(d,p) TD(NStates=1) EmpiricalDispersion=GD3 SP
 
 SP_3

1 1
    C    0.0    2.500655    1.3634309999999998
    C    0.0    3.6655080000000004    0.6609889999999999
    C    -0.0    3.668861    -0.73283
    C    -0.0    2.489156    -1.4245379999999999
    C    0.0    -2.4371560000000003    -1.390538
    C    -0.0    -3.6988609999999995    -0.69483
    C    0.0    -3.7375079999999996    0.682989
    C    0.0    -2.484655    1.357431
    C    0.0    -0.032    1.453369
    C    0.0    -0.019000000000000003    -1.429189
    C    0.0    1.2860549999999997    0.643065
    C    -0.0    1.2734709999999998    -0.677804
    C    -0.0    -1.2380550000000001    0.7110650000000001
    C    0.0    -1.2014710000000002    -0.7838040000000001
    H    0.0    2.3900710000000003    2.443647
    H    0.0    4.570753    1.249689
    H    -0.0    4.566262    -1.334349
    H    0.0    2.58155    -2.504059
    H    0.0    0.07    -2.510266
    H    0.0    -2.3535500000000003    -2.4760590000000002
    H    0.0    -4.652262    -1.210349
    H    -0.0    -4.7027529999999995    1.173689
    H    0.0    -2.586071    2.443647
    H    -0.859585    -0.122    2.145787
    H    0.859585    -0.122    2.145787

