%NProcShared=32
%mem = 128GB
#n M062X/6-311++G(d,p) TD(NStates=1) EmpiricalDispersion=GD3 SP
 
 SP_5

1 1
    C    0.0    2.452655    1.3654309999999998
    C    0.0    3.5815080000000004    0.6269889999999999
    C    -0.0    3.628861    -0.7988299999999999
    C    -0.0    2.573156    -1.462538
    C    0.0    -2.3531560000000002    -1.352538
    C    -0.0    -3.7388609999999995    -0.62883
    C    0.0    -3.8215079999999997    0.716989
    C    0.0    -2.532655    1.355431
    C    0.0    -0.08    1.453369
    C    0.0    0.06499999999999999    -1.429189
    C    0.0    1.3320549999999998    0.6570650000000001
    C    -0.0    1.3274709999999998    -0.645804
    C    -0.0    -1.192055    0.6970649999999999
    C    0.0    -1.1474710000000001    -0.815804
    H    0.0    2.3080710000000004    2.443647
    H    0.0    4.466753    1.251689
    H    -0.0    4.534262    -1.382349
    H    0.0    2.68755    -2.540059
    H    0.0    0.2    -2.510266
    H    0.0    -2.2475500000000004    -2.440059
    H    0.0    -4.684262    -1.1623489999999999
    H    -0.0    -4.806753    1.171689
    H    0.0    -2.668071    2.443647
    H    -0.859585    -0.35000000000000003    2.145787
    H    0.859585    -0.35000000000000003    2.145787

