%NProcShared=32
%mem = 128GB
#n M062X/6-311++G(d,p) TD(NStates=1) EmpiricalDispersion=GD3 SP
 
 SP_4

1 1
    C    0.0    2.444655    1.364431
    C    0.0    3.587508    0.6279889999999999
    C    -0.0    3.630861    -0.7978299999999999
    C    -0.0    2.571156    -1.459538
    C    0.0    -2.355156    -1.355538
    C    -0.0    -3.7368609999999998    -0.62983
    C    0.0    -3.815508    0.715989
    C    0.0    -2.540655    1.356431
    C    0.0    -0.07200000000000001    1.453369
    C    0.0    0.08099999999999999    -1.429189
    C    0.0    1.3270549999999999    0.672065
    C    -0.0    1.318471    -0.6638040000000001
    C    -0.0    -1.197055    0.682065
    C    0.0    -1.156471    -0.797804
    H    0.0    2.339071    2.443647
    H    0.0    4.482753    1.2366890000000001
    H    -0.0    4.548262    -1.362349
    H    0.0    2.65255    -2.538059
    H    0.0    0.185    -2.510266
    H    0.0    -2.28255    -2.442059
    H    0.0    -4.670262    -1.1823489999999999
    H    -0.0    -4.790753    1.1866889999999999
    H    0.0    -2.637071    2.443647
    H    -0.859585    -0.32400000000000007    2.145787
    H    0.859585    -0.32400000000000007    2.145787

