%NProcShared=32
%mem = 128GB
#n M062X/6-311++G(d,p) TD(NStates=1) EmpiricalDispersion=GD3 SP
 
 SP_1

1 1
    C    0.0    2.436655    1.3614309999999998
    C    0.0    3.623508    0.6389889999999999
    C    -0.0    3.645861    -0.7788299999999999
    C    -0.0    2.545156    -1.4425379999999999
    C    0.0    -2.3811560000000003    -1.372538
    C    -0.0    -3.7218609999999996    -0.64883
    C    0.0    -3.779508    0.704989
    C    0.0    -2.548655    1.359431
    C    0.0    -0.04    1.453369
    C    0.0    0.09999999999999999    -1.429189
    C    0.0    1.3030549999999999    0.706065
    C    -0.0    1.282471    -0.716804
    C    -0.0    -1.221055    0.648065
    C    0.0    -1.192471    -0.744804
    H    0.0    2.437071    2.443647
    H    0.0    4.548753    1.198689
    H    -0.0    4.591262    -1.300349
    H    0.0    2.5385500000000003    -2.524059
    H    0.0    0.115    -2.510266
    H    0.0    -2.39655    -2.456059
    H    0.0    -4.627262    -1.244349
    H    -0.0    -4.724753    1.2246890000000001
    H    0.0    -2.5390710000000003    2.443647
    H    -0.859585    -0.20199999999999999    2.145787
    H    0.859585    -0.20199999999999999    2.145787

