%NProcShared=32
%mem = 128GB
#n M062X/6-311++G(d,p) TD(NStates=1) EmpiricalDispersion=GD3 SP
 
 SP_4

1 1
    C    0.0    2.508655    1.364431
    C    0.0    3.659508    0.6599889999999999
    C    -0.0    3.666861    -0.73383
    C    -0.0    2.491156    -1.427538
    C    0.0    -2.435156    -1.387538
    C    -0.0    -3.7008609999999997    -0.69383
    C    0.0    -3.743508    0.683989
    C    0.0    -2.476655    1.356431
    C    0.0    -0.04    1.453369
    C    0.0    -0.035    -1.429189
    C    0.0    1.2910549999999998    0.628065
    C    -0.0    1.282471    -0.6598040000000001
    C    -0.0    -1.233055    0.7260650000000001
    C    0.0    -1.192471    -0.801804
    H    0.0    2.359071    2.443647
    H    0.0    4.554753    1.2646890000000002
    H    -0.0    4.552262    -1.354349
    H    0.0    2.61655    -2.506059
    H    0.0    0.08499999999999999    -2.510266
    H    0.0    -2.31855    -2.474059
    H    0.0    -4.666262000000001    -1.1903489999999999
    H    -0.0    -4.7187529999999995    1.1586889999999999
    H    0.0    -2.617071    2.443647
    H    -0.859585    -0.14800000000000002    2.145787
    H    0.859585    -0.14800000000000002    2.145787

