%NProcShared=32
%mem = 128GB
#n M062X/6-311++G(d,p) TD(NStates=1) EmpiricalDispersion=GD3 SP
 
 SP_3

1 1
    C    0.0    2.468655    1.3634309999999998
    C    0.0    3.6295080000000004    0.6449889999999999
    C    -0.0    3.650861    -0.76483
    C    -0.0    2.529156    -1.4405379999999999
    C    0.0    -2.3971560000000003    -1.374538
    C    -0.0    -3.7168609999999997    -0.6628299999999999
    C    0.0    -3.7735079999999996    0.698989
    C    0.0    -2.516655    1.357431
    C    0.0    -0.048    1.453369
    C    0.0    0.03899999999999999    -1.429189
    C    0.0    1.3040549999999997    0.665065
    C    -0.0    1.2914709999999998    -0.679804
    C    -0.0    -1.2200550000000001    0.689065
    C    0.0    -1.1834710000000002    -0.781804
    H    0.0    2.380071    2.443647
    H    0.0    4.534752999999999    1.235689
    H    -0.0    4.564262    -1.338349
    H    0.0    2.5995500000000002    -2.520059
    H    0.0    0.12    -2.510266
    H    0.0    -2.33555    -2.460059
    H    0.0    -4.654262    -1.206349
    H    -0.0    -4.738753    1.187689
    H    0.0    -2.5960710000000002    2.443647
    H    -0.859585    -0.21000000000000002    2.145787
    H    0.859585    -0.21000000000000002    2.145787

