%NProcShared=32
%mem = 128GB
#n M062X/6-311++G(d,p) TD(NStates=1) EmpiricalDispersion=GD3 SP
 
 SP_2

1 1
    C    0.0    2.492655    1.362431
    C    0.0    3.671508    0.6619889999999999
    C    -0.0    3.670861    -0.73183
    C    -0.0    2.487156    -1.421538
    C    0.0    -2.439156    -1.393538
    C    -0.0    -3.6968609999999997    -0.69583
    C    0.0    -3.731508    0.681989
    C    0.0    -2.492655    1.358431
    C    0.0    -0.024    1.453369
    C    0.0    -0.0030000000000000027    -1.429189
    C    0.0    1.2810549999999998    0.658065
    C    -0.0    1.264471    -0.695804
    C    -0.0    -1.243055    0.696065
    C    0.0    -1.210471    -0.765804
    H    0.0    2.4210710000000004    2.443647
    H    0.0    4.586753    1.2346890000000001
    H    -0.0    4.580262    -1.314349
    H    0.0    2.54655    -2.502059
    H    0.0    0.055    -2.510266
    H    0.0    -2.3885500000000004    -2.478059
    H    0.0    -4.638262    -1.230349
    H    -0.0    -4.6867529999999995    1.1886889999999999
    H    0.0    -2.555071    2.443647
    H    -0.859585    -0.096    2.145787
    H    0.859585    -0.096    2.145787

