%NProcShared=32
%mem = 128GB
#n M062X/6-311++G(d,p) TD(NStates=1) EmpiricalDispersion=GD3 SP
 
 SP_5

1 1
    C    0.0    2.468655    1.3654309999999998
    C    0.0    3.599508    0.6349889999999999
    C    -0.0    3.637861    -0.7828299999999999
    C    -0.0    2.553156    -1.4545379999999999
    C    0.0    -2.3731560000000003    -1.360538
    C    -0.0    -3.7298609999999996    -0.64483
    C    0.0    -3.803508    0.708989
    C    0.0    -2.516655    1.355431
    C    0.0    -0.07200000000000001    1.453369
    C    0.0    0.03599999999999999    -1.429189
    C    0.0    1.3230549999999999    0.6460650000000001
    C    -0.0    1.318471    -0.644804
    C    -0.0    -1.201055    0.7080649999999999
    C    0.0    -1.156471    -0.816804
    H    0.0    2.3130710000000003    2.443647
    H    0.0    4.4847529999999995    1.258689
    H    -0.0    4.535262    -1.380349
    H    0.0    2.67855    -2.532059
    H    0.0    0.175    -2.510266
    H    0.0    -2.2565500000000003    -2.448059
    H    0.0    -4.683262    -1.1643489999999999
    H    -0.0    -4.788753    1.164689
    H    0.0    -2.663071    2.443647
    H    -0.859585    -0.306    2.145787
    H    0.859585    -0.306    2.145787

