%NProcShared=32
%mem = 128GB
#n M062X/6-311++G(d,p) TD(NStates=1) EmpiricalDispersion=GD3 SP
 
 SP_5

1 1
    C    0.0    2.484655    1.3654309999999998
    C    0.0    3.6175080000000004    0.6429889999999999
    C    -0.0    3.646861    -0.76683
    C    -0.0    2.533156    -1.4465379999999999
    C    0.0    -2.3931560000000003    -1.368538
    C    -0.0    -3.7208609999999998    -0.6608299999999999
    C    0.0    -3.7855079999999997    0.700989
    C    0.0    -2.500655    1.355431
    C    0.0    -0.064    1.453369
    C    0.0    0.006999999999999992    -1.429189
    C    0.0    1.3140549999999998    0.6350650000000001
    C    -0.0    1.3094709999999998    -0.643804
    C    -0.0    -1.210055    0.719065
    C    0.0    -1.1654710000000001    -0.817804
    H    0.0    2.318071    2.443647
    H    0.0    4.502752999999999    1.265689
    H    -0.0    4.536262    -1.378349
    H    0.0    2.66955    -2.524059
    H    0.0    0.15    -2.510266
    H    0.0    -2.26555    -2.456059
    H    0.0    -4.682262000000001    -1.1663489999999999
    H    -0.0    -4.770753    1.157689
    H    0.0    -2.658071    2.443647
    H    -0.859585    -0.262    2.145787
    H    0.859585    -0.262    2.145787

