%NProcShared=32
%mem = 128GB
#n M062X/6-311++G(d,p) TD(NStates=1) EmpiricalDispersion=GD3 SP
 
 SP_1

1 1
    C    0.0    2.468655    1.3614309999999998
    C    0.0    3.659508    0.6549889999999999
    C    -0.0    3.6638610000000003    -0.74683
    C    -0.0    2.505156    -1.4265379999999999
    C    0.0    -2.4211560000000003    -1.388538
    C    -0.0    -3.7038609999999994    -0.6808299999999999
    C    0.0    -3.743508    0.688989
    C    0.0    -2.516655    1.359431
    C    0.0    -0.024    1.453369
    C    0.0    0.041999999999999996    -1.429189
    C    0.0    1.2850549999999998    0.684065
    C    -0.0    1.264471    -0.714804
    C    -0.0    -1.239055    0.670065
    C    0.0    -1.210471    -0.746804
    H    0.0    2.447071    2.443647
    H    0.0    4.584753    1.212689
    H    -0.0    4.593262    -1.296349
    H    0.0    2.52055    -2.508059
    H    0.0    0.065    -2.510266
    H    0.0    -2.41455    -2.4720590000000002
    H    0.0    -4.625262    -1.248349
    H    -0.0    -4.688752999999999    1.2106890000000001
    H    0.0    -2.529071    2.443647
    H    -0.859585    -0.11399999999999999    2.145787
    H    0.859585    -0.11399999999999999    2.145787

