%NProcShared=32
%mem = 128GB
#n M062X/6-311++G(d,p) TD(NStates=1) EmpiricalDispersion=GD3 SP
 
 SP_2

1 1
    C    0.0    2.444655    1.362431
    C    0.0    3.617508    0.6379889999999999
    C    -0.0    3.643861    -0.77983
    C    -0.0    2.547156    -1.445538
    C    0.0    -2.379156    -1.369538
    C    -0.0    -3.723861    -0.6478299999999999
    C    0.0    -3.785508    0.705989
    C    0.0    -2.540655    1.358431
    C    0.0    -0.048    1.453369
    C    0.0    0.08399999999999999    -1.429189
    C    0.0    1.308055    0.691065
    C    -0.0    1.291471    -0.698804
    C    -0.0    -1.2160549999999999    0.663065
    C    0.0    -1.183471    -0.762804
    H    0.0    2.4060710000000003    2.443647
    H    0.0    4.532753    1.213689
    H    -0.0    4.577262000000001    -1.320349
    H    0.0    2.57355    -2.526059
    H    0.0    0.13    -2.510266
    H    0.0    -2.3615500000000003    -2.454059
    H    0.0    -4.641261999999999    -1.224349
    H    -0.0    -4.740753    1.209689
    H    0.0    -2.570071    2.443647
    H    -0.859585    -0.22799999999999998    2.145787
    H    0.859585    -0.22799999999999998    2.145787

