%NProcShared=32
%mem = 128GB
#n M062X/6-311++G(d,p) TD(NStates=1) EmpiricalDispersion=GD3 SP
 
 SP_3

1 1
    C    0.0    2.436655    1.3634309999999998
    C    0.0    3.5935080000000004    0.6289889999999999
    C    -0.0    3.632861    -0.7968299999999999
    C    -0.0    2.569156    -1.4565379999999999
    C    0.0    -2.3571560000000003    -1.358538
    C    -0.0    -3.7348609999999995    -0.63083
    C    0.0    -3.8095079999999997    0.714989
    C    0.0    -2.548655    1.357431
    C    0.0    -0.064    1.453369
    C    0.0    0.09699999999999999    -1.429189
    C    0.0    1.3220549999999998    0.687065
    C    -0.0    1.3094709999999998    -0.681804
    C    -0.0    -1.202055    0.667065
    C    0.0    -1.1654710000000001    -0.779804
    H    0.0    2.3700710000000003    2.443647
    H    0.0    4.498753    1.221689
    H    -0.0    4.5622620000000005    -1.342349
    H    0.0    2.61755    -2.536059
    H    0.0    0.16999999999999998    -2.510266
    H    0.0    -2.31755    -2.444059
    H    0.0    -4.656262    -1.202349
    H    -0.0    -4.774753    1.201689
    H    0.0    -2.606071    2.443647
    H    -0.859585    -0.29800000000000004    2.145787
    H    0.859585    -0.29800000000000004    2.145787

