%NProcShared=32
%mem = 128GB
#n M062X/6-311++G(d,p) TD(NStates=1) EmpiricalDispersion=GD3 SP
 
 SP_2

1 1
    C    0.0    2.476655    1.362431
    C    0.0    3.653508    0.6539889999999999
    C    -0.0    3.661861    -0.74783
    C    -0.0    2.507156    -1.429538
    C    0.0    -2.419156    -1.385538
    C    -0.0    -3.7058609999999996    -0.6798299999999999
    C    0.0    -3.749508    0.689989
    C    0.0    -2.508655    1.358431
    C    0.0    -0.032    1.453369
    C    0.0    0.025999999999999995    -1.429189
    C    0.0    1.290055    0.669065
    C    -0.0    1.273471    -0.696804
    C    -0.0    -1.234055    0.685065
    C    0.0    -1.201471    -0.764804
    H    0.0    2.4160710000000005    2.443647
    H    0.0    4.568753    1.227689
    H    -0.0    4.579262000000001    -1.316349
    H    0.0    2.5555499999999998    -2.510059
    H    0.0    0.08    -2.510266
    H    0.0    -2.3795500000000005    -2.470059
    H    0.0    -4.6392619999999996    -1.228349
    H    -0.0    -4.704752999999999    1.195689
    H    0.0    -2.5600709999999998    2.443647
    H    -0.859585    -0.14    2.145787
    H    0.859585    -0.14    2.145787

