%NProcShared=48
%mem = 190GB
#n M062X/6-311++G(d,p) TD(NStates=1) EmpiricalDispersion=GD3 SP
 
 SP_-12

1 1
    C    0.0    2.5150550000000003    1.360831
    C    0.0    3.7207079999999997    0.681189
    C    0.0    3.693861    -0.6950299999999999
    C    0.0    2.439956    -1.399138
    C    -0.0    -2.4863560000000002    -1.415938
    C    0.0    -3.6738609999999996    -0.73263
    C    0.0    -3.6823080000000004    0.6627889999999999
    C    0.0    -2.470255    1.360031
    C    0.0    0.0063999999999999994    1.453369
    C    0.0    -0.0412    -1.429189
    C    0.0    1.253255    0.657865
    C    0.0    1.2302710000000001    -0.722404
    C    0.0    -1.2708549999999998    0.696265
    C    0.0    -1.2446709999999999    -0.739204
    H    0.0    2.481671    2.443647
    H    0.0    4.651953    1.226089
    H    0.0    4.604862    -1.277949
    H    0.0    2.47075    -2.481259
    H    0.0    -0.024    -2.510266
    H    -0.0    -2.4643500000000005    -2.498859
    H    0.0    -4.613662000000001    -1.266749
    H    0.0    -4.621553    1.197289
    H    -0.0    -2.4944710000000003    2.443647
    H    -0.859585    0.0424    2.145787
    H    0.859585    0.0424    2.145787

