%NProcShared=48
%mem = 190GB
#n M062X/6-311++G(d,p) TD(NStates=1) EmpiricalDispersion=GD3 SP
 
 SP_10

1 1
    C    0.0    2.4750550000000002    1.360231
    C    0.0    3.684708    0.6641889999999999
    C    0.0    3.675261    -0.72963
    C    0.0    2.482756    -1.414938
    C    0.0    -2.443556    -1.4001379999999999
    C    0.0    -3.6924609999999998    -0.6980299999999999
    C    -0.0    -3.718308    0.679789
    C    -0.0    -2.510255    1.360631
    C    0.0    -0.0064    1.453369
    C    0.0    0.0322    -1.429189
    C    -0.0    1.270055    0.691065
    C    0.0    1.2446709999999999    -0.7354040000000001
    C    0.0    -1.254055    0.663065
    C    0.0    -1.2302710000000001    -0.726204
    H    0.0    2.4892710000000005    2.443647
    H    0.0    4.6219529999999995    1.2016890000000002
    H    0.0    4.6110619999999995    -1.270349
    H    -0.0    2.46955    -2.497659
    H    0.0    0.022000000000000002    -2.510266
    H    0.0    -2.4655500000000004    -2.482459
    H    0.0    -4.607462000000001    -1.274349
    H    0.0    -4.651553    1.2216889999999998
    H    0.0    -2.486871    2.443647
    H    -0.859585    -0.0388    2.145787
    H    0.859585    -0.0388    2.145787

