%NProcShared=48
%mem = 190GB
#n M062X/6-311++G(d,p) TD(NStates=1) EmpiricalDispersion=GD3 SP
 
 SP_14

1 1
    C    0.0    2.473455    1.360831
    C    0.0    3.673908    0.660389
    C    -0.0    3.670461    -0.7366299999999999
    C    -0.0    2.491956    -1.4199380000000001
    C    0.0    -2.434356    -1.3951379999999998
    C    -0.0    -3.6972609999999997    -0.69103
    C    0.0    -3.729108    0.6835889999999999
    C    0.0    -2.511855    1.360031
    C    0.0    -0.014400000000000001    1.453369
    C    0.0    0.034199999999999994    -1.429189
    C    0.0    1.2766549999999999    0.686465
    C    -0.0    1.253671    -0.725004
    C    -0.0    -1.247455    0.6676650000000001
    C    0.0    -1.221271    -0.736604
    H    0.0    2.468671    2.443647
    H    0.0    4.605153    1.207889
    H    -0.0    4.602262    -1.2831489999999999
    H    0.0    2.49415    -2.502059
    H    0.0    0.041    -2.510266
    H    0.0    -2.4409500000000004    -2.478059
    H    0.0    -4.616262000000001    -1.261549
    H    -0.0    -4.668353    1.215489
    H    0.0    -2.5074710000000002    2.443647
    H    -0.859585    -0.07200000000000001    2.145787
    H    0.859585    -0.07200000000000001    2.145787

