%NProcShared=48
%mem = 190GB
#n M062X/6-311++G(d,p) TD(NStates=1) EmpiricalDispersion=GD3 SP
 
 SP_6

1 1
    C    0.0    2.4814550000000004    1.360231
    C    0.0    3.6919079999999997    0.6673889999999999
    C    0.0    3.678861    -0.72323
    C    0.0    2.474756    -1.411738
    C    0.0    -2.451556    -1.403338
    C    0.0    -3.6888609999999997    -0.7044299999999999
    C    -0.0    -3.7111080000000003    0.676589
    C    -0.0    -2.5038549999999997    1.360631
    C    0.0    -0.0031999999999999997    1.453369
    C    0.0    0.0206    -1.429189
    C    -0.0    1.266455    0.6866650000000001
    C    0.0    1.241071    -0.7350040000000001
    C    0.0    -1.2576549999999997    0.667465
    C    0.0    -1.233871    -0.7266039999999999
    H    0.0    2.4912710000000002    2.443647
    H    0.0    4.629153    1.2044890000000001
    H    0.0    4.6114619999999995    -1.269549
    H    -0.0    2.46595    -2.494459
    H    0.0    0.012    -2.510266
    H    0.0    -2.4691500000000004    -2.485659
    H    0.0    -4.607062000000001    -1.2751489999999999
    H    0.0    -4.644353    1.218889
    H    0.0    -2.484871    2.443647
    H    -0.859585    -0.0212    2.145787
    H    0.859585    -0.0212    2.145787

