%NProcShared=48
%mem = 190GB
#n M062X/6-311++G(d,p) TD(NStates=1) EmpiricalDispersion=GD3 SP
 
 SP_4

1 1
    C    0.0    2.483055    1.360031
    C    0.0    3.696708    0.6691889999999999
    C    0.0    3.6810609999999997    -0.71983
    C    0.0    2.470356    -1.409538
    C    0.0    -2.455956    -1.405538
    C    0.0    -3.686661    -0.70783
    C    -0.0    -3.706308    0.674789
    C    -0.0    -2.5022550000000003    1.360831
    C    0.0    0.0    1.453369
    C    0.0    0.018    -1.429189
    C    -0.0    1.263655    0.687465
    C    0.0    1.237471    -0.738404
    C    0.0    -1.2604549999999999    0.6666650000000001
    C    0.0    -1.237471    -0.7232040000000001
    H    0.0    2.4984710000000003    2.443647
    H    0.0    4.635953    1.202889
    H    0.0    4.6144620000000005    -1.2651489999999999
    H    -0.0    2.4571500000000004    -2.492459
    H    0.0    0.004    -2.510266
    H    0.0    -2.47795    -2.487659
    H    0.0    -4.604062    -1.279549
    H    0.0    -4.637553    1.220489
    H    0.0    -2.477671    2.443647
    H    -0.859585    -0.0072000000000000015    2.145787
    H    0.859585    -0.0072000000000000015    2.145787

