%NProcShared=48
%mem = 190GB
#n M062X/6-311++G(d,p) TD(NStates=1) EmpiricalDispersion=GD3 SP
 
 SP_-14

1 1
    C    0.0    2.5150550000000003    1.360431
    C    0.0    3.726708    0.6831889999999999
    C    0.0    3.6964609999999998    -0.69143
    C    0.0    2.435156    -1.3963379999999999
    C    -0.0    -2.491156    -1.418738
    C    0.0    -3.671261    -0.7362299999999999
    C    0.0    -3.676308    0.660789
    C    0.0    -2.470255    1.360431
    C    0.0    0.011200000000000002    1.453369
    C    0.0    -0.0406    -1.429189
    C    0.0    1.249455    0.6616650000000001
    C    0.0    1.224871    -0.729404
    C    0.0    -1.2746549999999999    0.692465
    C    0.0    -1.250071    -0.732204
    H    0.0    2.4950710000000003    2.443647
    H    0.0    4.661953    1.221489
    H    0.0    4.6106620000000005    -1.269549
    H    0.0    2.45495    -2.478859
    H    0.0    -0.035    -2.510266
    H    -0.0    -2.48015    -2.501259
    H    0.0    -4.607862    -1.2751489999999999
    H    0.0    -4.611553    1.201889
    H    -0.0    -2.481071    2.443647
    H    -0.859585    0.0616    2.145787
    H    0.859585    0.0616    2.145787

