%NProcShared=48
%mem = 190GB
#n M062X/6-311++G(d,p) TD(NStates=1) EmpiricalDispersion=GD3 SP
 
 SP_-6

1 1
    C    0.0    2.507055    1.3610309999999999
    C    0.0    3.708708    0.6761889999999999
    C    0.0    3.688061    -0.70483
    C    0.0    2.452356    -1.404538
    C    -0.0    -2.4739560000000003    -1.4105379999999998
    C    0.0    -3.679661    -0.72283
    C    0.0    -3.694308    0.667789
    C    0.0    -2.4782550000000003    1.359831
    C    0.0    0.0    1.453369
    C    0.0    -0.026999999999999996    -1.429189
    C    0.0    1.2596549999999997    0.661465
    C    0.0    1.237471    -0.7194039999999999
    C    0.0    -1.264455    0.6926650000000001
    C    0.0    -1.237471    -0.7422040000000001
    H    0.0    2.472471    2.443647
    H    0.0    4.6379529999999995    1.224889
    H    0.0    4.601462000000001    -1.2831489999999999
    H    0.0    2.48315    -2.486459
    H    0.0    -0.006    -2.510266
    H    -0.0    -2.45195    -2.493659
    H    0.0    -4.617062    -1.261549
    H    0.0    -4.635553    1.1984890000000001
    H    -0.0    -2.503671    2.443647
    H    -0.859585    0.010799999999999999    2.145787
    H    0.859585    0.010799999999999999    2.145787

