%NProcShared=48
%mem = 190GB
#n M062X/6-311++G(d,p) TD(NStates=1) EmpiricalDispersion=GD3 SP
 
 SP_-12

1 1
    C    0.0    2.516655    1.3610309999999999
    C    0.0    3.719508    0.680989
    C    0.0    3.693461    -0.69523
    C    0.0    2.440356    -1.399738
    C    -0.0    -2.4859560000000003    -1.415338
    C    0.0    -3.6742609999999996    -0.7324299999999999
    C    0.0    -3.6835080000000002    0.6629889999999999
    C    0.0    -2.468655    1.359831
    C    0.0    0.0048    1.453369
    C    0.0    -0.044399999999999995    -1.429189
    C    0.0    1.254255    0.654865
    C    0.0    1.2320710000000001    -0.718804
    C    0.0    -1.269855    0.699265
    C    0.0    -1.2428709999999998    -0.742804
    H    0.0    2.4754709999999998    2.443647
    H    0.0    4.648753    1.2290889999999999
    H    0.0    4.602062    -1.281949
    H    0.0    2.47775    -2.481659
    H    0.0    -0.020999999999999998    -2.510266
    H    -0.0    -2.4573500000000004    -2.498459
    H    0.0    -4.616462    -1.262749
    H    0.0    -4.624752999999999    1.1942890000000002
    H    -0.0    -2.5006710000000005    2.443647
    H    -0.859585    0.0372    2.145787
    H    0.859585    0.0372    2.145787

