%NProcShared=48
%mem = 190GB
#n M062X/6-311++G(d,p) TD(NStates=1) EmpiricalDispersion=GD3 SP
 
 SP_-6

1 1
    C    0.0    2.505455    1.360831
    C    0.0    3.709908    0.676389
    C    0.0    3.6884609999999998    -0.7046299999999999
    C    0.0    2.451956    -1.4039380000000001
    C    -0.0    -2.474356    -1.4111379999999998
    C    0.0    -3.679261    -0.7230300000000001
    C    0.0    -3.693108    0.6675889999999999
    C    0.0    -2.479855    1.360031
    C    0.0    0.0015999999999999994    1.453369
    C    0.0    -0.023799999999999998    -1.429189
    C    0.0    1.2586549999999999    0.664465
    C    0.0    1.235671    -0.723004
    C    0.0    -1.265455    0.6896650000000001
    C    0.0    -1.239271    -0.738604
    H    0.0    2.4786710000000003    2.443647
    H    0.0    4.641152999999999    1.221889
    H    0.0    4.604262    -1.2791489999999999
    H    0.0    2.47615    -2.486059
    H    0.0    -0.009    -2.510266
    H    -0.0    -2.45895    -2.494059
    H    0.0    -4.614262    -1.265549
    H    0.0    -4.632353    1.201489
    H    -0.0    -2.497471    2.443647
    H    -0.859585    0.016    2.145787
    H    0.859585    0.016    2.145787

