%NProcShared=48
%mem = 190GB
#n M062X/6-311++G(d,p) TD(NStates=1) EmpiricalDispersion=GD3 SP
 
 SP_-6

1 1
    C    -0.0    2.497455    1.359831
    C    -0.0    3.715908    0.677389
    C    0.0    3.6904609999999995    -0.7036299999999999
    C    0.0    2.4499560000000002    -1.400938
    C    0.0    -2.476356    -1.414138
    C    0.0    -3.677261    -0.7240300000000001
    C    0.0    -3.687108    0.6665889999999999
    C    0.0    -2.487855    1.3610309999999999
    C    -0.0    0.0096    1.453369
    C    0.0    -0.0078    -1.429189
    C    0.0    1.253655    0.679465
    C    0.0    1.2266709999999998    -0.741004
    C    0.0    -1.270455    0.6746650000000001
    C    -0.0    -1.2482710000000001    -0.720604
    H    -0.0    2.5096710000000004    2.443647
    H    -0.0    4.657152999999999    1.206889
    H    0.0    4.6182620000000005    -1.2591489999999999
    H    0.0    2.4411500000000004    -2.4840590000000002
    H    0.0    -0.024    -2.510266
    H    0.0    -2.49395    -2.496059
    H    -0.0    -4.600262    -1.285549
    H    0.0    -4.616353    1.216489
    H    0.0    -2.466471    2.443647
    H    -0.859585    0.042    2.145787
    H    0.859585    0.042    2.145787

