%NProcShared=48
%mem = 190GB
#n M062X/6-311++G(d,p) TD(NStates=1) EmpiricalDispersion=GD3 SP
 
 SP_-6

1 1
    C    0.0    2.502255    1.360431
    C    0.0    3.712308    0.676789
    C    0.0    3.6892609999999997    -0.7042299999999999
    C    0.0    2.451156    -1.402738
    C    -0.0    -2.475156    -1.4123379999999999
    C    0.0    -3.678461    -0.72343
    C    0.0    -3.690708    0.6671889999999999
    C    0.0    -2.4830550000000002    1.360431
    C    0.0    0.0048    1.453369
    C    0.0    -0.0174    -1.429189
    C    0.0    1.2566549999999999    0.670465
    C    0.0    1.232071    -0.730204
    C    0.0    -1.267455    0.6836650000000001
    C    0.0    -1.242871    -0.731404
    H    0.0    2.4910710000000003    2.443647
    H    0.0    4.647552999999999    1.215889
    H    0.0    4.609862000000001    -1.2711489999999999
    H    0.0    2.4621500000000003    -2.485259
    H    0.0    -0.015    -2.510266
    H    -0.0    -2.47295    -2.494859
    H    0.0    -4.608662    -1.273549
    H    0.0    -4.625953    1.207489
    H    -0.0    -2.485071    2.443647
    H    -0.859585    0.0264    2.145787
    H    0.859585    0.0264    2.145787

