%NProcShared=48
%mem = 190GB
#n M062X/6-311++G(d,p) TD(NStates=1) EmpiricalDispersion=GD3 SP
 
 SP_-14

1 1
    C    0.0    2.5182550000000004    1.360831
    C    0.0    3.7243079999999997    0.682789
    C    0.0    3.695661    -0.69183
    C    0.0    2.435956    -1.397538
    C    -0.0    -2.4903560000000002    -1.417538
    C    0.0    -3.672061    -0.73583
    C    0.0    -3.6787080000000003    0.6611889999999999
    C    0.0    -2.4670549999999998    1.360031
    C    0.0    0.008000000000000002    1.453369
    C    0.0    -0.047    -1.429189
    C    0.0    1.251455    0.655665
    C    0.0    1.228471    -0.7222040000000001
    C    0.0    -1.2726549999999999    0.698465
    C    0.0    -1.2464709999999999    -0.739404
    H    0.0    2.4826710000000003    2.443647
    H    0.0    4.655552999999999    1.227489
    H    0.0    4.605062    -1.277549
    H    0.0    2.46895    -2.479659
    H    0.0    -0.029000000000000005    -2.510266
    H    -0.0    -2.4661500000000003    -2.500459
    H    0.0    -4.613462    -1.2671489999999999
    H    0.0    -4.617953    1.195889
    H    -0.0    -2.493471    2.443647
    H    -0.859585    0.0512    2.145787
    H    0.859585    0.0512    2.145787

