%NProcShared=48
%mem = 190GB
#n M062X/6-311++G(d,p) TD(NStates=1) EmpiricalDispersion=GD3 SP
 
 SP_-4

1 1
    C    0.0    2.503855    1.3610309999999999
    C    0.0    3.705108    0.6745889999999999
    C    0.0    3.686261    -0.70803
    C    0.0    2.456356    -1.4061379999999999
    C    -0.0    -2.4699560000000003    -1.408938
    C    0.0    -3.6814609999999997    -0.7196299999999999
    C    0.0    -3.697908    0.669389
    C    0.0    -2.481455    1.359831
    C    0.0    -0.0015999999999999994    1.453369
    C    0.0    -0.021199999999999997    -1.429189
    C    0.0    1.2614549999999998    0.6636650000000001
    C    0.0    1.239271    -0.719604
    C    0.0    -1.262655    0.690465
    C    0.0    -1.235671    -0.742004
    H    0.0    2.4714709999999998    2.443647
    H    0.0    4.634353    1.2234889999999998
    H    0.0    4.601262    -1.283549
    H    0.0    2.48495    -2.488059
    H    0.0    -0.0010000000000000009    -2.510266
    H    -0.0    -2.4501500000000003    -2.4920590000000002
    H    0.0    -4.617262    -1.2611489999999999
    H    0.0    -4.639152999999999    1.1998890000000002
    H    -0.0    -2.5046710000000005    2.443647
    H    -0.859585    0.002    2.145787
    H    0.859585    0.002    2.145787

