%NProcShared=48
%mem = 190GB
#n M062X/6-311++G(d,p) TD(NStates=1) EmpiricalDispersion=GD3 SP
 
 SP_10

1 1
    C    0.0    2.471855    1.359831
    C    0.0    3.6871080000000003    0.664589
    C    0.0    3.676061    -0.7292299999999999
    C    0.0    2.4819560000000003    -1.413738
    C    0.0    -2.444356    -1.401338
    C    0.0    -3.691661    -0.69843
    C    -0.0    -3.7159079999999998    0.6793889999999999
    C    -0.0    -2.513455    1.3610309999999999
    C    0.0    -0.0032000000000000006    1.453369
    C    0.0    0.038599999999999995    -1.429189
    C    -0.0    1.268055    0.697065
    C    0.0    1.2410709999999998    -0.742604
    C    0.0    -1.256055    0.657065
    C    0.0    -1.2338710000000002    -0.719004
    H    0.0    2.5016710000000004    2.443647
    H    0.0    4.628353    1.1956890000000002
    H    0.0    4.616662    -1.262349
    H    -0.0    2.45555    -2.496859
    H    0.0    0.016    -2.510266
    H    0.0    -2.47955    -2.483259
    H    0.0    -4.601862000000001    -1.282349
    H    0.0    -4.645153    1.2276889999999998
    H    0.0    -2.474471    2.443647
    H    -0.859585    -0.0284    2.145787
    H    0.859585    -0.0284    2.145787

