%NProcShared=48
%mem = 190GB
#n M062X/6-311++G(d,p) TD(NStates=1) EmpiricalDispersion=GD3 SP
 
 SP_-2

1 1
    C    -0.0    2.4910550000000002    1.359831
    C    -0.0    3.708708    0.674189
    C    0.0    3.6868609999999995    -0.7100299999999999
    C    0.0    2.4579560000000003    -1.4041379999999999
    C    0.0    -2.468356    -1.410938
    C    0.0    -3.680861    -0.71763
    C    0.0    -3.694308    0.6697889999999999
    C    0.0    -2.494255    1.3610309999999999
    C    -0.0    0.0063999999999999994    1.453369
    C    0.0    0.0037999999999999996    -1.429189
    C    0.0    1.257255    0.6838650000000001
    C    0.0    1.230271    -0.7414040000000001
    C    0.0    -1.2668549999999998    0.670265
    C    -0.0    -1.244671    -0.720204
    H    -0.0    2.507671    2.443647
    H    -0.0    4.649952999999999    1.2040890000000002
    H    0.0    4.617862000000001    -1.259949
    H    0.0    2.4447500000000004    -2.4872590000000003
    H    0.0    -0.013999999999999999    -2.510266
    H    0.0    -2.49035    -2.4928589999999997
    H    -0.0    -4.600662    -1.284749
    H    0.0    -4.623553    1.2192889999999998
    H    0.0    -2.468471    2.443647
    H    -0.859585    0.0244    2.145787
    H    0.859585    0.0244    2.145787

