%NProcShared=48
%mem = 190GB
#n M062X/6-311++G(d,p) TD(NStates=1) EmpiricalDispersion=GD3 SP
 
 SP_14

1 1
    C    0.0    2.465455    1.359831
    C    0.0    3.679908    0.661389
    C    0.0    3.6724609999999998    -0.7356299999999999
    C    0.0    2.4899560000000003    -1.416938
    C    0.0    -2.436356    -1.3981379999999999
    C    0.0    -3.695261    -0.69203
    C    -0.0    -3.723108    0.6825889999999999
    C    -0.0    -2.519855    1.3610309999999999
    C    0.0    -0.006400000000000002    1.453369
    C    0.0    0.050199999999999995    -1.429189
    C    -0.0    1.271655    0.701465
    C    0.0    1.2446709999999999    -0.743004
    C    0.0    -1.2524549999999999    0.652665
    C    0.0    -1.2302710000000001    -0.718604
    H    0.0    2.499671    2.443647
    H    0.0    4.621153    1.192889
    H    0.0    4.616262    -1.2631489999999999
    H    -0.0    2.45915    -2.5000590000000003
    H    0.0    0.026000000000000002    -2.510266
    H    0.0    -2.47595    -2.480059
    H    0.0    -4.6022620000000005    -1.281549
    H    0.0    -4.652353    1.230489
    H    0.0    -2.476471    2.443647
    H    -0.859585    -0.046    2.145787
    H    0.859585    -0.046    2.145787

