%NProcShared=48
%mem = 190GB
#n M062X/6-311++G(d,p) TD(NStates=1) EmpiricalDispersion=GD3 SP
 
 SP_-4

1 1
    C    -0.0    2.4942550000000003    1.359831
    C    -0.0    3.712308    0.675789
    C    0.0    3.6886609999999997    -0.70683
    C    0.0    2.4539560000000002    -1.4025379999999998
    C    0.0    -2.472356    -1.412538
    C    0.0    -3.679061    -0.72083
    C    0.0    -3.690708    0.6681889999999999
    C    0.0    -2.491055    1.3610309999999999
    C    -0.0    0.008    1.453369
    C    0.0    -0.002    -1.429189
    C    0.0    1.255455    0.6816650000000001
    C    0.0    1.2284709999999999    -0.7412040000000001
    C    0.0    -1.2686549999999999    0.672465
    C    -0.0    -1.246471    -0.7204039999999999
    H    -0.0    2.508671    2.443647
    H    -0.0    4.653553    1.205489
    H    0.0    4.618062    -1.259549
    H    0.0    2.44295    -2.485659
    H    0.0    -0.019    -2.510266
    H    0.0    -2.49215    -2.494459
    H    -0.0    -4.600462    -1.2851489999999999
    H    0.0    -4.619953    1.217889
    H    0.0    -2.467471    2.443647
    H    -0.859585    0.0332    2.145787
    H    0.859585    0.0332    2.145787

