%NProcShared=48
%mem = 190GB
#n M062X/6-311++G(d,p) TD(NStates=1) EmpiricalDispersion=GD3 SP
 
 SP_-2

1 1
    C    0.0    2.497455    1.360631
    C    0.0    3.703908    0.673389
    C    0.0    3.6852609999999997    -0.71083
    C    0.0    2.459556    -1.4065379999999998
    C    -0.0    -2.466756    -1.408538
    C    0.0    -3.682461    -0.71683
    C    0.0    -3.699108    0.6705889999999999
    C    0.0    -2.487855    1.360231
    C    0.0    0.0    1.453369
    C    0.0    -0.009    -1.429189
    C    0.0    1.2612549999999998    0.671865
    C    0.0    1.237471    -0.727004
    C    0.0    -1.262855    0.682265
    C    0.0    -1.237471    -0.734604
    H    0.0    2.482871    2.443647
    H    0.0    4.637153    1.216089
    H    0.0    4.606662000000001    -1.275949
    H    0.0    2.4727500000000004    -2.488859
    H    0.0    -0.002    -2.510266
    H    -0.0    -2.46235    -2.491259
    H    0.0    -4.6118619999999995    -1.268749
    H    0.0    -4.636353    1.207289
    H    -0.0    -2.4932710000000005    2.443647
    H    -0.859585    0.0036000000000000008    2.145787
    H    0.859585    0.0036000000000000008    2.145787

