%NProcShared=48
%mem = 190GB
#n M062X/6-311++G(d,p) TD(NStates=1) EmpiricalDispersion=GD3 SP
 
 SP_-14

1 1
    C    0.0    2.516655    1.360631
    C    0.0    3.725508    0.682989
    C    0.0    3.696061    -0.69163
    C    0.0    2.435556    -1.3969379999999998
    C    -0.0    -2.490756    -1.4181380000000001
    C    0.0    -3.671661    -0.73603
    C    0.0    -3.677508    0.6609889999999999
    C    0.0    -2.468655    1.360231
    C    0.0    0.009600000000000001    1.453369
    C    0.0    -0.0438    -1.429189
    C    0.0    1.2504549999999999    0.6586650000000001
    C    0.0    1.226671    -0.725804
    C    0.0    -1.273655    0.695465
    C    0.0    -1.248271    -0.735804
    H    0.0    2.488871    2.443647
    H    0.0    4.658753    1.224489
    H    0.0    4.607862000000001    -1.273549
    H    0.0    2.4619500000000003    -2.479259
    H    0.0    -0.032    -2.510266
    H    -0.0    -2.47315    -2.500859
    H    0.0    -4.610662    -1.2711489999999999
    H    0.0    -4.614752999999999    1.198889
    H    -0.0    -2.4872710000000002    2.443647
    H    -0.859585    0.056400000000000006    2.145787
    H    0.859585    0.056400000000000006    2.145787

