%NProcShared=48
%mem = 190GB
#n M062X/6-311++G(d,p) TD(NStates=1) EmpiricalDispersion=GD3 SP
 
 SP_8

1 1
    C    0.0    2.479855    1.360431
    C    0.0    3.687108    0.665589
    C    -0.0    3.6766609999999997    -0.72663
    C    -0.0    2.479156    -1.413938
    C    0.0    -2.447156    -1.401138
    C    -0.0    -3.691061    -0.7010299999999999
    C    0.0    -3.715908    0.6783889999999999
    C    0.0    -2.505455    1.360431
    C    0.0    -0.0064    1.453369
    C    0.0    0.0232    -1.429189
    C    0.0    1.269255    0.6858650000000001
    C    -0.0    1.244671    -0.731604
    C    -0.0    -1.2548549999999998    0.668265
    C    0.0    -1.230271    -0.730004
    H    0.0    2.484071    2.443647
    H    0.0    4.6223529999999995    1.206089
    H    -0.0    4.608462    -1.273949
    H    0.0    2.4747500000000002    -2.496459
    H    0.0    0.02    -2.510266
    H    0.0    -2.46035    -2.483659
    H    0.0    -4.610062    -1.270749
    H    -0.0    -4.651153    1.217289
    H    0.0    -2.492071    2.443647
    H    -0.859585    -0.0352    2.145787
    H    0.859585    -0.0352    2.145787

