%NProcShared=48
%mem = 190GB
#n M062X/6-311++G(d,p) TD(NStates=1) EmpiricalDispersion=GD3 SP
 
 SP_0

1 1
    C    0.0    2.495855    1.360831
    C    0.0    3.699108    0.671589
    C    -0.0    3.683061    -0.7142299999999999
    C    -0.0    2.463956    -1.408738
    C    0.0    -2.462356    -1.4063379999999999
    C    -0.0    -3.6846609999999997    -0.71343
    C    0.0    -3.703908    0.6723889999999999
    C    0.0    -2.489455    1.360031
    C    0.0    -0.0032    1.453369
    C    0.0    -0.0064    -1.429189
    C    0.0    1.264055    0.671065
    C    -0.0    1.241071    -0.723604
    C    -0.0    -1.260055    0.683065
    C    0.0    -1.233871    -0.738004
    H    0.0    2.475671    2.443647
    H    0.0    4.6303529999999995    1.217689
    H    -0.0    4.603662    -1.280349
    H    0.0    2.48155    -2.490859
    H    0.0    0.006    -2.510266
    H    0.0    -2.4535500000000003    -2.489259
    H    0.0    -4.6148620000000005    -1.264349
    H    -0.0    -4.643153    1.205689
    H    0.0    -2.500471    2.443647
    H    -0.859585    -0.0104    2.145787
    H    0.859585    -0.0104    2.145787

