%NProcShared=48
%mem = 190GB
#n M062X/6-311++G(d,p) TD(NStates=1) EmpiricalDispersion=GD3 SP
 
 SP_-4

1 1
    C    0.0    2.500655    1.360631
    C    0.0    3.7075080000000002    0.674989
    C    0.0    3.687061    -0.70763
    C    0.0    2.455556    -1.4049379999999998
    C    -0.0    -2.470756    -1.4101380000000001
    C    0.0    -3.6806609999999997    -0.72003
    C    0.0    -3.695508    0.668989
    C    0.0    -2.484655    1.360231
    C    0.0    0.0016    1.453369
    C    0.0    -0.014799999999999999    -1.429189
    C    0.0    1.2594549999999998    0.6696650000000001
    C    0.0    1.235671    -0.726804
    C    0.0    -1.264655    0.684465
    C    0.0    -1.239271    -0.734804
    H    0.0    2.4838709999999997    2.443647
    H    0.0    4.640753    1.2174889999999998
    H    0.0    4.6068620000000005    -1.275549
    H    0.0    2.47095    -2.487259
    H    0.0    -0.007    -2.510266
    H    -0.0    -2.46415    -2.492859
    H    0.0    -4.611662    -1.2691489999999999
    H    0.0    -4.632752999999999    1.2058890000000002
    H    -0.0    -2.4922710000000006    2.443647
    H    -0.859585    0.012400000000000001    2.145787
    H    0.859585    0.012400000000000001    2.145787

