%NProcShared=48
%mem = 190GB
#n M062X/6-311++G(d,p) TD(NStates=1) EmpiricalDispersion=GD3 SP
 
 SP_-8

1 1
    C    -0.0    2.503855    1.360231
    C    -0.0    3.717108    0.6785889999999999
    C    0.0    3.691461    -0.70083
    C    0.0    2.446756    -1.400538
    C    0.0    -2.479556    -1.4145379999999999
    C    0.0    -3.676261    -0.72683
    C    0.0    -3.685908    0.665389
    C    0.0    -2.481455    1.360631
    C    -0.0    0.008    1.453369
    C    0.0    -0.019999999999999997    -1.429189
    C    0.0    1.253855    0.671265
    C    0.0    1.2284709999999999    -0.733604
    C    0.0    -1.270255    0.682865
    C    -0.0    -1.246471    -0.728004
    H    -0.0    2.4982710000000004    2.443647
    H    -0.0    4.6543529999999995    1.2142890000000002
    H    0.0    4.612862    -1.266749
    H    0.0    2.45335    -2.483259
    H    0.0    -0.023    -2.510266
    H    0.0    -2.4817500000000003    -2.496859
    H    -0.0    -4.605662000000001    -1.277949
    H    0.0    -4.619153    1.2090889999999999
    H    0.0    -2.477871    2.443647
    H    -0.859585    0.040400000000000005    2.145787
    H    0.859585    0.040400000000000005    2.145787

