%NProcShared=48
%mem = 190GB
#n M062X/6-311++G(d,p) TD(NStates=1) EmpiricalDispersion=GD3 SP
 
 SP_10

1 1
    C    0.0    2.479855    1.360831
    C    0.0    3.681108    0.663589
    C    -0.0    3.674061    -0.7302299999999999
    C    -0.0    2.483956    -1.416738
    C    0.0    -2.442356    -1.3983379999999999
    C    -0.0    -3.6936609999999996    -0.69743
    C    0.0    -3.721908    0.6803889999999999
    C    0.0    -2.505455    1.360031
    C    0.0    -0.0112    1.453369
    C    0.0    0.0226    -1.429189
    C    0.0    1.2730549999999998    0.682065
    C    -0.0    1.250071    -0.724604
    C    -0.0    -1.251055    0.672065
    C    0.0    -1.224871    -0.737004
    H    0.0    2.4706710000000003    2.443647
    H    0.0    4.612353    1.2106890000000001
    H    -0.0    4.602662    -1.282349
    H    0.0    2.49055    -2.498859
    H    0.0    0.031    -2.510266
    H    0.0    -2.4445500000000004    -2.481259
    H    0.0    -4.615862000000001    -1.262349
    H    -0.0    -4.661153    1.212689
    H    0.0    -2.505471    2.443647
    H    -0.859585    -0.054400000000000004    2.145787
    H    0.859585    -0.054400000000000004    2.145787

