%NProcShared=48
%mem = 190GB
#n M062X/6-311++G(d,p) TD(NStates=1) EmpiricalDispersion=GD3 SP
 
 SP_8

1 1
    C    0.0    2.484655    1.3610309999999999
    C    0.0    3.683508    0.6649889999999999
    C    -0.0    3.675461    -0.72723
    C    -0.0    2.480356    -1.415738
    C    0.0    -2.4459560000000002    -1.399338
    C    -0.0    -3.692261    -0.7004299999999999
    C    0.0    -3.7195080000000003    0.678989
    C    0.0    -2.500655    1.359831
    C    0.0    -0.0112    1.453369
    C    0.0    0.0136    -1.429189
    C    0.0    1.272255    0.676865
    C    -0.0    1.2500710000000002    -0.720804
    C    -0.0    -1.251855    0.677265
    C    0.0    -1.2248709999999998    -0.740804
    H    0.0    2.465471    2.443647
    H    0.0    4.612753    1.2150889999999999
    H    -0.0    4.600062    -1.285949
    H    0.0    2.49575    -2.497659
    H    0.0    0.028999999999999998    -2.510266
    H    0.0    -2.43935    -2.482459
    H    0.0    -4.618462    -1.258749
    H    -0.0    -4.660753    1.2082890000000002
    H    0.0    -2.5106710000000003    2.443647
    H    -0.859585    -0.050800000000000005    2.145787
    H    0.859585    -0.050800000000000005    2.145787

