%NProcShared=48
%mem = 190GB
#n M062X/6-311++G(d,p) TD(NStates=1) EmpiricalDispersion=GD3 SP
 
 SP_-8

1 1
    C    0.0    2.510255    1.3610309999999999
    C    0.0    3.712308    0.6777889999999999
    C    0.0    3.689861    -0.70163
    C    0.0    2.448356    -1.402938
    C    -0.0    -2.4779560000000003    -1.412138
    C    0.0    -3.6778609999999996    -0.72603
    C    0.0    -3.690708    0.666189
    C    0.0    -2.4750550000000002    1.359831
    C    0.0    0.0016000000000000007    1.453369
    C    0.0    -0.032799999999999996    -1.429189
    C    0.0    1.2578549999999997    0.659265
    C    0.0    1.235671    -0.719204
    C    0.0    -1.2662550000000001    0.6948650000000001
    C    0.0    -1.239271    -0.7424040000000001
    H    0.0    2.473471    2.443647
    H    0.0    4.641553    1.226289
    H    0.0    4.601662    -1.282749
    H    0.0    2.48135    -2.4848589999999997
    H    0.0    -0.011000000000000001    -2.510266
    H    -0.0    -2.4537500000000003    -2.4952590000000003
    H    0.0    -4.616862    -1.261949
    H    0.0    -4.631952999999999    1.197089
    H    -0.0    -2.5026710000000003    2.443647
    H    -0.859585    0.0196    2.145787
    H    0.859585    0.0196    2.145787

