%NProcShared=48
%mem = 190GB
#n M062X/6-311++G(d,p) TD(NStates=1) EmpiricalDispersion=GD3 SP
 
 SP_-8

1 1
    C    0.0    2.507055    1.360631
    C    0.0    3.7147080000000003    0.6781889999999999
    C    0.0    3.690661    -0.7012299999999999
    C    0.0    2.447556    -1.401738
    C    -0.0    -2.478756    -1.413338
    C    0.0    -3.6770609999999997    -0.72643
    C    0.0    -3.6883079999999997    0.665789
    C    0.0    -2.4782550000000003    1.360231
    C    0.0    0.0048000000000000004    1.453369
    C    0.0    -0.0264    -1.429189
    C    0.0    1.2558549999999997    0.665265
    C    0.0    1.232071    -0.7264039999999999
    C    0.0    -1.2682550000000001    0.6888650000000001
    C    0.0    -1.242871    -0.7352040000000001
    H    0.0    2.485871    2.443647
    H    0.0    4.647953    1.220289
    H    0.0    4.607262    -1.274749
    H    0.0    2.46735    -2.484059
    H    0.0    -0.017    -2.510266
    H    -0.0    -2.46775    -2.4960590000000002
    H    0.0    -4.611262    -1.269949
    H    0.0    -4.625552999999999    1.203089
    H    -0.0    -2.4902710000000003    2.443647
    H    -0.859585    0.030000000000000002    2.145787
    H    0.859585    0.030000000000000002    2.145787

