%NProcShared=48
%mem = 190GB
#n M062X/6-311++G(d,p) TD(NStates=1) EmpiricalDispersion=GD3 SP
 
 SP_-10

1 1
    C    0.0    2.511855    1.360831
    C    0.0    3.7171079999999996    0.679589
    C    0.0    3.692061    -0.6982299999999999
    C    0.0    2.443956    -1.400738
    C    -0.0    -2.4823560000000002    -1.4143379999999999
    C    0.0    -3.675661    -0.72943
    C    0.0    -3.6859080000000004    0.6643889999999999
    C    0.0    -2.473455    1.360031
    C    0.0    0.0048000000000000004    1.453369
    C    0.0    -0.0354    -1.429189
    C    0.0    1.255055    0.660065
    C    0.0    1.2320710000000001    -0.722604
    C    0.0    -1.2690549999999998    0.694065
    C    0.0    -1.2428709999999998    -0.739004
    H    0.0    2.480671    2.443647
    H    0.0    4.648352999999999    1.224689
    H    0.0    4.604662    -1.278349
    H    0.0    2.47255    -2.482859
    H    0.0    -0.019000000000000003    -2.510266
    H    -0.0    -2.4625500000000002    -2.497259
    H    0.0    -4.613862    -1.266349
    H    0.0    -4.625153    1.1986890000000001
    H    -0.0    -2.495471    2.443647
    H    -0.859585    0.033600000000000005    2.145787
    H    0.859585    0.033600000000000005    2.145787

