%NProcShared=48
%mem = 190GB
#n M062X/6-311++G(d,p) TD(NStates=1) EmpiricalDispersion=GD3 SP
 
 SP_2

1 1
    C    0.0    2.486255    1.360031
    C    0.0    3.700308    0.6707889999999999
    C    0.0    3.682861    -0.71663
    C    0.0    2.466356    -1.407938
    C    0.0    -2.459956    -1.407138
    C    0.0    -3.6848609999999997    -0.7110299999999999
    C    -0.0    -3.702708    0.673189
    C    -0.0    -2.4990550000000002    1.360831
    C    0.0    0.0016    1.453369
    C    0.0    0.012199999999999999    -1.429189
    C    -0.0    1.261855    0.685265
    C    0.0    1.235671    -0.738204
    C    0.0    -1.262255    0.668865
    C    0.0    -1.239271    -0.723404
    H    0.0    2.499471    2.443647
    H    0.0    4.639553    1.204289
    H    0.0    4.614662    -1.264749
    H    -0.0    2.45535    -2.490859
    H    0.0    -0.001    -2.510266
    H    0.0    -2.47975    -2.489259
    H    0.0    -4.603862    -1.279949
    H    0.0    -4.633952999999999    1.219089
    H    0.0    -2.476671    2.443647
    H    -0.859585    0.001599999999999999    2.145787
    H    0.859585    0.001599999999999999    2.145787

