%NProcShared=48
%mem = 190GB
#n M062X/6-311++G(d,p) TD(NStates=1) EmpiricalDispersion=GD3 SP
 
 SP_-12

1 1
    C    -0.0    2.5102550000000003    1.360231
    C    -0.0    3.7243079999999997    0.681789
    C    0.0    3.695061    -0.69443
    C    0.0    2.438756    -1.397338
    C    0.0    -2.487556    -1.417738
    C    0.0    -3.6726609999999997    -0.7332299999999999
    C    0.0    -3.6787080000000003    0.6621889999999999
    C    0.0    -2.475055    1.360631
    C    -0.0    0.0112    1.453369
    C    0.0    -0.031599999999999996    -1.429189
    C    0.0    1.2502550000000001    0.666865
    C    0.0    1.224871    -0.7332040000000001
    C    0.0    -1.2738549999999997    0.687265
    C    -0.0    -1.250071    -0.7284039999999999
    H    -0.0    2.500271    2.443647
    H    -0.0    4.661553    1.217089
    H    0.0    4.613262    -1.265949
    H    0.0    2.44975    -2.4800590000000002
    H    0.0    -0.033    -2.510266
    H    0.0    -2.4853500000000004    -2.500059
    H    -0.0    -4.605262000000001    -1.278749
    H    0.0    -4.611953    1.206289
    H    0.0    -2.475871    2.443647
    H    -0.859585    0.057999999999999996    2.145787
    H    0.859585    0.057999999999999996    2.145787

