%NProcShared=48
%mem = 190GB
#n M062X/6-311++G(d,p) TD(NStates=1) EmpiricalDispersion=GD3 SP
 
 SP_-8

1 1
    C    0.0    2.508655    1.360831
    C    0.0    3.713508    0.677989
    C    0.0    3.690261    -0.7014299999999999
    C    0.0    2.447956    -1.402338
    C    -0.0    -2.4783560000000002    -1.4127379999999998
    C    0.0    -3.6774609999999996    -0.72623
    C    0.0    -3.689508    0.6659889999999999
    C    0.0    -2.476655    1.360031
    C    0.0    0.0032    1.453369
    C    0.0    -0.029599999999999998    -1.429189
    C    0.0    1.2568549999999998    0.662265
    C    0.0    1.233871    -0.722804
    C    0.0    -1.267255    0.6918650000000001
    C    0.0    -1.241071    -0.738804
    H    0.0    2.479671    2.443647
    H    0.0    4.644753    1.223289
    H    0.0    4.604462    -1.278749
    H    0.0    2.47435    -2.4844589999999998
    H    0.0    -0.014    -2.510266
    H    -0.0    -2.4607500000000004    -2.4956590000000003
    H    0.0    -4.6140620000000006    -1.265949
    H    0.0    -4.628753    1.200089
    H    -0.0    -2.496471    2.443647
    H    -0.859585    0.024800000000000003    2.145787
    H    0.859585    0.024800000000000003    2.145787

