%NProcShared=48
%mem = 190GB
#n M062X/6-311++G(d,p) TD(NStates=1) EmpiricalDispersion=GD3 SP
 
 SP_-6

1 1
    C    0.0    2.5106550000000003    1.2944309999999999
    C    -0.0    3.7795080000000003    0.749989
    C    0.0    3.7858609999999997    -0.58183
    C    0.0    2.415156    -1.413538
    C    0.0    -2.511156    -1.401538
    C    0.0    -3.581861    -0.84583
    C    0.0    -3.6235079999999997    0.5939889999999999
    C    0.0    -2.474655    1.426431
    C    -0.0    0.07200000000000001    1.453369
    C    0.0    -0.21    -1.429189
    C    0.0    1.1720549999999998    0.485065
    C    0.0    1.207471    -0.838804
    C    0.0    -1.352055    0.869065
    C    -0.0    -1.267471    -0.622804
    H    0.0    2.356071    2.377647
    H    0.0    4.672752999999999    1.3556890000000001
    H    0.0    4.699262    -1.1703489999999999
    H    0.0    2.5695500000000004    -2.496059
    H    0.0    -0.33599999999999997    -2.510266
    H    0.0    -2.36555    -2.4840590000000002
    H    -0.0    -4.519262    -1.374349
    H    0.0    -4.600753    1.0676889999999999
    H    0.0    -2.6200710000000003    2.5096469999999997
    H    -0.859585    0.40800000000000003    2.145787
    H    0.859585    0.40800000000000003    2.145787

