%NProcShared=48
%mem = 190GB
#n M062X/6-311++G(d,p) TD(NStates=1) EmpiricalDispersion=GD3 SP
 
 SP_2

1 1
    C    0.0    2.518655    1.382431
    C    0.0    3.711508    0.6619889999999999
    C    0.0    3.667861    -0.72583
    C    -0.0    2.439156    -1.389538
    C    0.0    -2.487156    -1.425538
    C    0.0    -3.699861    -0.70183
    C    0.0    -3.6915080000000002    0.681989
    C    -0.0    -2.4666550000000003    1.338431
    C    0.0    -0.008    1.453369
    C    0.0    0.012    -1.429189
    C    0.0    1.274055    0.7190650000000001
    C    0.0    1.229471    -0.692804
    C    0.0    -1.250055    0.635065
    C    0.0    -1.245471    -0.768804
    H    0.0    2.542071    2.4656469999999997
    H    0.0    4.660753    1.177689
    H    0.0    4.581262000000001    -1.302349
    H    -0.0    2.41555    -2.4720590000000002
    H    0.0    0.062    -2.510266
    H    0.0    -2.51955    -2.508059
    H    0.0    -4.637262    -1.242349
    H    0.0    -4.612753    1.245689
    H    0.0    -2.4340710000000003    2.421647
    H    -0.859585    -0.048    2.145787
    H    0.859585    -0.048    2.145787

