%NProcShared=48
%mem = 190GB
#n M062X/6-311++G(d,p) TD(NStates=1) EmpiricalDispersion=GD3 SP
 
 SP_-4

1 1
    C    0.0    2.408655    1.316431
    C    0.0    3.645508    0.675989
    C    -0.0    3.697861    -0.72183
    C    0.0    2.551156    -1.459538
    C    0.0    -2.375156    -1.355538
    C    -0.0    -3.6698609999999996    -0.70583
    C    -0.0    -3.757508    0.6679889999999999
    C    0.0    -2.576655    1.404431
    C    0.0    0.0    1.453369
    C    0.0    0.033999999999999996    -1.429189
    C    -0.0    1.256055    0.6150650000000001
    C    -0.0    1.271471    -0.808804
    C    -0.0    -1.268055    0.739065
    C    0.0    -1.203471    -0.652804
    H    0.0    2.3700710000000003    2.399647
    H    0.0    4.552753    1.265689
    H    -0.0    4.6632620000000005    -1.216349
    H    0.0    2.58955    -2.542059
    H    0.0    -0.074    -2.510266
    H    0.0    -2.3455500000000002    -2.438059
    H    0.0    -4.555262    -1.328349
    H    -0.0    -4.720752999999999    1.157689
    H    0.0    -2.606071    2.487647
    H    -0.859585    0.008000000000000007    2.145787
    H    0.859585    0.008000000000000007    2.145787

