%NProcShared=48
%mem = 190GB
#n M062X/6-311++G(d,p) TD(NStates=1) EmpiricalDispersion=GD3 SP
 
 SP_2

1 1
    C    -0.0    2.550655    1.382431
    C    0.0    3.747508    0.677989
    C    0.0    3.6858609999999996    -0.69383
    C    0.0    2.399156    -1.373538
    C    -0.0    -2.527156    -1.441538
    C    0.0    -3.681861    -0.73383
    C    0.0    -3.655508    0.6659889999999999
    C    0.0    -2.4346550000000002    1.338431
    C    0.0    0.008    1.453369
    C    0.0    -0.046    -1.429189
    C    0.0    1.256055    0.697065
    C    0.0    1.211471    -0.690804
    C    0.0    -1.268055    0.657065
    C    0.0    -1.263471    -0.770804
    H    -0.0    2.5520709999999998    2.4656469999999997
    H    -0.0    4.696752999999999    1.191689
    H    0.0    4.583262    -1.298349
    H    0.0    2.3975500000000003    -2.456059
    H    0.0    0.011999999999999997    -2.510266
    H    -0.0    -2.53755    -2.524059
    H    0.0    -4.635262    -1.246349
    H    0.0    -4.576753    1.231689
    H    -0.0    -2.4240710000000005    2.421647
    H    -0.859585    0.039999999999999994    2.145787
    H    0.859585    0.039999999999999994    2.145787

