%NProcShared=48
%mem = 190GB
#n M062X/6-311++G(d,p) TD(NStates=1) EmpiricalDispersion=GD3 SP
 
 SP_4

1 1
    C    -0.0    2.640655    1.404431
    C    0.0    3.829508    0.699989
    C    0.0    3.7058609999999996    -0.64183
    C    0.0    2.295156    -1.3235379999999999
    C    -0.0    -2.6311560000000003    -1.491538
    C    0.0    -3.661861    -0.7858299999999999
    C    0.0    -3.573508    0.6439889999999999
    C    0.0    -2.344655    1.316431
    C    0.0    0.032    1.453369
    C    0.0    -0.15    -1.429189
    C    0.0    1.232055    0.695065
    C    0.0    1.167471    -0.648804
    C    0.0    -1.292055    0.659065
    C    0.0    -1.307471    -0.812804
    H    -0.0    2.626071    2.487647
    H    -0.0    4.792752999999999    1.185689
    H    0.0    4.559262    -1.320349
    H    0.0    2.30955    -2.406059
    H    0.0    -0.025999999999999995    -2.510266
    H    -0.0    -2.62555    -2.574059
    H    0.0    -4.659262    -1.224349
    H    0.0    -4.480753    1.237689
    H    -0.0    -2.3500710000000002    2.399647
    H    -0.859585    0.168    2.145787
    H    0.859585    0.168    2.145787

