%NProcShared=48
%mem = 190GB
#n M062X/6-311++G(d,p) TD(NStates=1) EmpiricalDispersion=GD3 SP
 
 SP_-6

1 1
    C    0.0    2.318655    1.2944309999999999
    C    0.0    3.563508    0.6539889999999999
    C    -0.0    3.677861    -0.7738299999999999
    C    0.0    2.6551560000000003    -1.509538
    C    0.0    -2.271156    -1.3055379999999999
    C    -0.0    -3.6898609999999996    -0.65383
    C    -0.0    -3.839508    0.689989
    C    0.0    -2.666655    1.426431
    C    0.0    -0.024    1.453369
    C    0.0    0.13799999999999998    -1.429189
    C    -0.0    1.280055    0.617065
    C    -0.0    1.315471    -0.850804
    C    -0.0    -1.244055    0.7370650000000001
    C    0.0    -1.159471    -0.610804
    H    0.0    2.2960710000000004    2.377647
    H    0.0    4.456753    1.271689
    H    -0.0    4.687262    -1.1943489999999999
    H    0.0    2.67755    -2.592059
    H    0.0    -0.036000000000000004    -2.510266
    H    0.0    -2.25755    -2.388059
    H    0.0    -4.531262000000001    -1.350349
    H    -0.0    -4.816752999999999    1.151689
    H    0.0    -2.680071    2.5096469999999997
    H    -0.859585    -0.12000000000000002    2.145787
    H    0.859585    -0.12000000000000002    2.145787

