%NProcShared=48
%mem = 190GB
#n M062X/6-311++G(d,p) TD(NStates=1) EmpiricalDispersion=GD3 SP
 
 SP_4

1 1
    C    0.0    2.448655    1.404431
    C    0.0    3.613508    0.6039889999999999
    C    0.0    3.597861    -0.83383
    C    -0.0    2.535156    -1.419538
    C    0.0    -2.391156    -1.395538
    C    0.0    -3.7698609999999997    -0.59383
    C    0.0    -3.789508    0.739989
    C    -0.0    -2.536655    1.316431
    C    0.0    -0.064    1.453369
    C    0.0    0.19799999999999998    -1.429189
    C    0.0    1.340055    0.8270649999999999
    C    0.0    1.275471    -0.6608040000000001
    C    0.0    -1.1840549999999999    0.5270650000000001
    C    0.0    -1.199471    -0.800804
    H    0.0    2.5660710000000004    2.487647
    H    0.0    4.576753    1.101689
    H    0.0    4.547262    -1.344349
    H    -0.0    2.41755    -2.502059
    H    0.0    0.274    -2.510266
    H    0.0    -2.5175500000000004    -2.478059
    H    0.0    -4.6712620000000005    -1.2003489999999999
    H    0.0    -4.696752999999999    1.3216890000000001
    H    0.0    -2.410071    2.399647
    H    -0.859585    -0.36    2.145787
    H    0.859585    -0.36    2.145787

