%NProcShared=48
%mem = 190GB
#n M062X/6-311++G(d,p) TD(NStates=1) EmpiricalDispersion=GD3 SP
 
 SP_0

1 1
    C    -0.0    2.588655    1.360431
    C    0.0    3.809508    0.719989
    C    0.0    3.7378609999999997    -0.61783
    C    0.0    2.343156    -1.359538
    C    -0.0    -2.5831560000000002    -1.455538
    C    0.0    -3.629861    -0.8098299999999999
    C    0.0    -3.593508    0.6239889999999999
    C    0.0    -2.396655    1.360431
    C    0.0    0.048    1.453369
    C    0.0    -0.174    -1.429189
    C    0.0    1.2080549999999999    0.611065
    C    0.0    1.183471    -0.724804
    C    0.0    -1.316055    0.7430650000000001
    C    0.0    -1.291471    -0.736804
    H    -0.0    2.518071    2.443647
    H    -0.0    4.744752999999999    1.253689
    H    0.0    4.615262    -1.260349
    H    0.0    2.4135500000000003    -2.442059
    H    0.0    -0.15    -2.510266
    H    -0.0    -2.52155    -2.538059
    H    0.0    -4.603262    -1.284349
    H    0.0    -4.528753    1.169689
    H    -0.0    -2.4580710000000003    2.443647
    H    -0.859585    0.264    2.145787
    H    0.859585    0.264    2.145787

