%NProcShared=48
%mem = 190GB
#n M062X/6-311++G(d,p) TD(NStates=1) EmpiricalDispersion=GD3 SP
 
 SP_4

1 1
    C    -0.0    2.608655    1.404431
    C    0.0    3.793508    0.683989
    C    0.0    3.687861    -0.6738299999999999
    C    0.0    2.335156    -1.339538
    C    -0.0    -2.5911560000000002    -1.475538
    C    0.0    -3.679861    -0.75383
    C    0.0    -3.609508    0.6599889999999999
    C    0.0    -2.376655    1.316431
    C    0.0    0.016    1.453369
    C    0.0    -0.092    -1.429189
    C    0.0    1.250055    0.717065
    C    0.0    1.185471    -0.650804
    C    0.0    -1.274055    0.6370650000000001
    C    0.0    -1.289471    -0.810804
    H    -0.0    2.6160710000000003    2.487647
    H    -0.0    4.756753    1.171689
    H    0.0    4.557262    -1.324349
    H    0.0    2.32755    -2.422059
    H    0.0    0.023999999999999994    -2.510266
    H    -0.0    -2.6075500000000003    -2.558059
    H    0.0    -4.661262000000001    -1.220349
    H    0.0    -4.516753    1.251689
    H    -0.0    -2.360071    2.399647
    H    -0.859585    0.07999999999999999    2.145787
    H    0.859585    0.07999999999999999    2.145787

