%NProcShared=48
%mem = 190GB
#n M062X/6-311++G(d,p) TD(NStates=1) EmpiricalDispersion=GD3 SP
 
 SP_-2

1 1
    C    0.0    2.370655    1.338431
    C    0.0    3.583508    0.6339889999999999
    C    -0.0    3.645861    -0.7978299999999999
    C    0.0    2.6071560000000003    -1.473538
    C    0.0    -2.319156    -1.341538
    C    -0.0    -3.7218609999999996    -0.62983
    C    -0.0    -3.819508    0.709989
    C    0.0    -2.614655    1.382431
    C    0.0    -0.04    1.453369
    C    0.0    0.16199999999999998    -1.429189
    C    -0.0    1.304055    0.701065
    C    -0.0    1.299471    -0.774804
    C    -0.0    -1.220055    0.653065
    C    0.0    -1.175471    -0.686804
    H    0.0    2.4040710000000005    2.421647
    H    0.0    4.504753    1.203689
    H    -0.0    4.6312619999999995    -1.254349
    H    0.0    2.57355    -2.556059
    H    0.0    0.088    -2.510266
    H    0.0    -2.3615500000000003    -2.424059
    H    0.0    -4.587262000000001    -1.290349
    H    -0.0    -4.768752999999999    1.219689
    H    0.0    -2.5720709999999998    2.4656469999999997
    H    -0.859585    -0.21600000000000003    2.145787
    H    0.859585    -0.21600000000000003    2.145787

