%NProcShared=48
%mem = 190GB
#n M062X/6-311++G(d,p) TD(NStates=1) EmpiricalDispersion=GD3 SP
 
 SP_-4

1 1
    C    0.0    2.504655    1.316431
    C    -0.0    3.753508    0.723989
    C    0.0    3.751861    -0.6258299999999999
    C    0.0    2.431156    -1.411538
    C    0.0    -2.495156    -1.403538
    C    0.0    -3.6158609999999998    -0.80183
    C    0.0    -3.649508    0.6199889999999999
    C    0.0    -2.480655    1.404431
    C    -0.0    0.048    1.453369
    C    0.0    -0.13999999999999999    -1.429189
    C    0.0    1.2020549999999999    0.549065
    C    0.0    1.217471    -0.802804
    C    0.0    -1.322055    0.805065
    C    -0.0    -1.257471    -0.6588040000000001
    H    0.0    2.400071    2.399647
    H    0.0    4.660753    1.307689
    H    0.0    4.669262    -1.204349
    H    0.0    2.53555    -2.494059
    H    0.0    -0.224    -2.510266
    H    0.0    -2.39955    -2.486059
    H    -0.0    -4.549262000000001    -1.340349
    H    0.0    -4.612753    1.115689
    H    0.0    -2.576071    2.487647
    H    -0.859585    0.272    2.145787
    H    0.859585    0.272    2.145787

