%NProcShared=8
%mem = 32GB
%Chk=check_sp_2
#n M062X/6-311++G(d,p) TD SP pop=reg formcheck
 
 SP_-2

1 1
    C    2.494776417726712    1.3727589659417319    0.0
    C    3.7060002133771035    0.6806191546983995    0.0
    C    3.6903662289700447    -0.71049530980714    0.0
    C    2.4733211612638497    -1.404272396389003    0.0
    C    -2.4644988387361515    -1.400866569552729    -0.0
    C    -3.6945927369716864    -0.7036631391054575    -0.0
    C    -3.713878752564629    0.6837787771850634    -0.0
    C    -2.5021009971276156    1.3728410340582686    -0.0
    C    -0.001702913418137054    1.4665363807960607    0.0
    C    0.00642183011899877    -1.4245094829708662    0.0
    C    1.2667537710299552    0.6898946286417726    0.0
    C    1.2421808453016006    -0.7238908576118179    0.0
    C    -1.262465711940911    0.6848269224456299    -0.0
    C    -1.238959671727534    -0.723008625359048    -0.0
    H    2.4938710463684854    2.4580274148543295    0.0
    H    4.643344349610176    1.2214527739023393    0.0
    H    4.619429142388182    -1.2669798235535499    0.0
    H    2.475764805088224    -2.4887687771850633    0.0
    H    0.005478046778826426    -2.5075289659417312    0.0
    H    -2.4714151949117773    -2.4856091546983987    -0.0
    H    -4.620249823553549    -1.2661591423881826    -0.0
    H    -4.650874099302422    1.2243661920393931    -0.0
    H    -2.4961689536315133    2.4582120681165374    -0.0
    H    -0.009458350430857614    2.1567005170291345    -0.8637084489125976
    H    -0.009478867459991795    2.1567005170291345    0.8637084489125976

