echo

start molecule

title "Title"
charge 1

geometry units angstroms print xyz autosym
   C        3.65173       -0.78685       -0.00001
   C        2.44247       -1.43535       -0.00001
   C        1.23974       -0.68798       -0.00000
   C        1.27330        0.73074        0.00001
   C        2.50603        1.36411        0.00001
   C        3.67625        0.61507       -0.00000
   C        0.00000       -1.34275        0.00001
   C        0.00000        1.51499        0.00002
   C       -1.27330        0.73074        0.00000
   C       -1.23974       -0.68798        0.00002
   C       -2.44247       -1.43535        0.00001
   H       -2.38954       -2.51900        0.00002
   C       -3.65173       -0.78685       -0.00001
   C       -3.67625        0.61507       -0.00003
   C       -2.50603        1.36411       -0.00002
   H        0.00000       -2.43220        0.00001
   H        4.57869       -1.34594       -0.00002
   H        2.38954       -2.51900       -0.00002
   H        2.55762        2.44760        0.00002
   H        4.63171        1.12870        0.00000
   H       -0.00000        2.18953        0.86808
   H       -4.57869       -1.34594       -0.00001
   H       -4.63171        1.12870       -0.00005
   H       -2.55762        2.44760       -0.00004
   H        0.00000        2.18959       -0.86798
end

basis
  * library 6-31G*
end

dft
  xc b3lyp
  mult 1
  vectors output n2.movecs
end
task dft
dplot
  vectors n2.movecs
   LimitXYZ
  -6.0 6.0 50
  -6.0 6.0 50
  -6.0 6.0 50
  spin total
  orbitals; 1; 7
  output orbdensity.grd
end 

task dplot

