%NProcShared=32
%mem = 128GB
#n M062X/6-311++G(d,p) TD(NStates=1) EmpiricalDispersion=GD3 SP
 
 SP_150

1 1
    C    0.014550000000000063    2.490855    1.360431
    C    0.01447500000000057    3.706008    0.671989
    C    0.004799999999999804    3.690911    -0.71383
    C    -0.011474999999999902    2.469531000000001    -1.407538
    C    -0.011924999999999852    -2.470431    -1.407538
    C    0.002100000000000102    -3.695411    -0.71383
    C    0.010199999999999543    -3.707583    0.671989
    C    0.006000000000000005    -2.493555    1.360431
    C    0.006449999999999999    0.009899999999999909    1.453369
    C    -0.0183    -0.00044999999999995044    -1.429189
    C    -0.0024000000000000687    1.2564300000000002    0.677065
    C    -0.008399999999999908    1.2390459999999999    -0.730804
    C    -0.0030749999999999944    -1.256205    0.677065
    C    -0.006600000000000106    -1.237696    -0.730804
    H    0.008099999999999441    2.486271    2.443647
    H    0.015075000000000172    4.639378    1.211689
    H    -0.001500000000000501    4.6061119999999995    -1.272349
    H    -0.006149999999999323    2.4738499999999997    -2.490059
    H    -0.016875    -0.00022500000000047482    -2.510266
    H    -0.0048000000000004706    -2.4745250000000008    -2.490059
    H    -0.002849999999999353    -4.611737    -1.272349
    H    0.009900000000000242    -4.642752999999999    1.211689
    H    -0.0017999999999994687    -2.4891959999999997    2.443647
    H    -0.835585    0.002249999999999752    2.143312
    H    0.8835850000000001    0.002249999999999752    2.148262

