%NProcShared=32
%mem = 128GB
#n M062X/6-311++G(d,p) TD(NStates=1) EmpiricalDispersion=GD3 SP
 
 SP_125

1 1
    C    0.010650000000000048    2.491155    1.360431
    C    0.010125000000000495    3.704333    0.671989
    C    0.0034999999999998366    3.688061    -0.71383
    C    -0.00759999999999994    2.4673060000000007    -1.407538
    C    -0.007999999999999896    -2.468106    -1.407538
    C    0.001100000000000101    -3.692061    -0.71383
    C    0.006324999999999581    -3.705733    0.671989
    C    0.003049999999999997    -2.493555    1.360431
    C    0.004274999999999999    0.008799999999999919    1.453369
    C    -0.012200000000000003    -0.00039999999999995595    -1.429189
    C    -0.001525000000000054    1.2583300000000002    0.677065
    C    -0.005799999999999916    1.2386709999999999    -0.730804
    C    -0.002124999999999988    -1.25813    0.677065
    C    -0.0042000000000000925    -1.237471    -0.730804
    H    0.006499999999999506    2.486546    2.443647
    H    0.010625000000000107    4.638128    1.211689
    H    -0.0008500000000004615    4.606536999999999    -1.272349
    H    -0.004249999999999421    2.4716749999999994    -2.490059
    H    -0.01125    -0.00020000000000042206    -2.510266
    H    -0.0030500000000004412    -2.4722750000000007    -2.490059
    H    -0.002049999999999441    -4.611537    -1.272349
    H    0.006025000000000169    -4.641127999999999    1.211689
    H    -0.0022999999999995246    -2.489146    2.443647
    H    -0.843585    0.0019999999999997797    2.143587
    H    0.8755850000000001    0.0019999999999997797    2.1479869999999996

