%NProcShared=32
%mem = 128GB
#n M062X/6-311++G(d,p) TD(NStates=1) EmpiricalDispersion=GD3 SP
 
 SP_0

1 1
    C    -0.011800000000000033    2.492655    1.360431
    C    -0.015499999999999847    3.694108    0.671989
    C    -0.0040000000000000036    3.6704609999999995    -0.71383
    C    0.015699999999999825    2.453856    -1.407538
    C    0.015499999999999847    -2.454256    -1.407538
    C    -0.005199999999999871    -3.6724609999999998    -0.71383
    C    -0.017400000000000304    -3.694808    0.671989
    C    -0.015600000000000058    -2.493855    1.360431
    C    -0.0088    0.0043999999999999595    1.453369
    C    0.024399999999999998    -0.00019999999999997797    -1.429189
    C    0.0038000000000000256    1.269755    0.677065
    C    0.009600000000000053    1.236571    -0.730804
    C    0.0035000000000000586    -1.2696549999999998    0.677065
    C    0.010399999999999965    -1.2359710000000002    -0.730804
    H    -0.002000000000000224    2.487871    2.443647
    H    -0.015500000000000291    4.630253    1.211689
    H    0.0031999999999996476    4.608462    -1.272349
    H    0.007000000000000117    2.45855    -2.490059
    H    0.0225    -0.00010000000000021103    -2.510266
    H    0.007599999999999607    -2.4588500000000004    -2.490059
    H    0.0026000000000001577    -4.610962000000001    -1.272349
    H    -0.01780000000000026    -4.631753    1.211689
    H    -0.006399999999999739    -2.4891710000000002    2.443647
    H    -0.8915850000000001    0.0009999999999998899    2.144687
    H    0.827585    0.0009999999999998899    2.146887

