%NProcShared=32
%mem = 128GB
#n M062X/6-311++G(d,p) TD(NStates=1) EmpiricalDispersion=GD3 SP
 
 SP_125

1 1
    C    0.0018000000000000238    2.491155    1.360431
    C    -0.0014999999999993907    3.698783    0.671989
    C    0.0004999999999998339    3.6780109999999997    -0.71383
    C    0.004174999999999929    2.4603310000000005    -1.407538
    C    0.0036249999999999893    -2.461431    -1.407538
    C    -0.0027999999999998026    -3.6835109999999998    -0.71383
    C    -0.006725000000000647    -3.7007079999999997    0.671989
    C    -0.008650000000000047    -2.4944550000000003    1.360431
    C    -0.0023250000000000007    0.012099999999999889    1.453369
    C    0.006099999999999998    -0.0005499999999999394    -1.429189
    C    0.001324999999999965    1.2641050000000003    0.677065
    C    0.0014000000000001234    1.2379959999999999    -0.730804
    C    0.000500000000000056    -1.2638299999999998    0.677065
    C    0.003599999999999881    -1.2363460000000002    -0.730804
    H    0.004999999999999338    2.486396    2.443647
    H    -0.001000000000000112    4.633253    1.211689
    H    0.0015499999999992742    4.605937    -1.272349
    H    0.001000000000000667    2.464924999999999    -2.490059
    H    0.0056250000000000015    -0.00027500000000058034    -2.510266
    H    0.002649999999999264    -2.4657500000000008    -2.490059
    H    -9.999999999932285e-05    -4.612812000000001    -1.272349
    H    -0.007325000000000026    -4.637377999999999    1.211689
    H    -0.007099999999999329    -2.489971    2.443647
    H    -0.867585    0.002749999999999697    2.142762
    H    0.851585    0.002749999999999697    2.148812

