%NProcShared=32
%mem = 128GB
#n M062X/6-311++G(d,p) TD(NStates=1) EmpiricalDispersion=GD3 SP
 
 SP_75

1 1
    C    -0.006000000000000005    2.491755    1.360431
    C    -0.010199999999999543    3.695433    0.671989
    C    -0.002100000000000102    3.6723109999999997    -0.71383
    C    0.011924999999999852    2.455881    -1.407538
    C    0.011474999999999902    -2.4567809999999994    -1.407538
    C    -0.004799999999999804    -3.676811    -0.71383
    C    -0.01447500000000057    -3.697008    0.671989
    C    -0.014550000000000063    -2.4944550000000003    1.360431
    C    -0.006675    0.009899999999999909    1.453369
    C    0.0183    -0.00044999999999995044    -1.429189
    C    0.0030749999999999944    1.2679049999999998    0.677065
    C    0.006600000000000106    1.237246    -0.730804
    C    0.0024000000000000687    -1.2676799999999997    0.677065
    C    0.008399999999999908    -1.235896    -0.730804
    H    0.0017999999999994687    2.4869459999999997    2.443647
    H    -0.009900000000000242    4.630753    1.211689
    H    0.002849999999999353    4.606787000000001    -1.272349
    H    0.0048000000000004706    2.4605749999999995    -2.490059
    H    0.016875    -0.00022500000000047482    -2.510266
    H    0.006149999999999323    -2.4612500000000006    -2.490059
    H    0.001500000000000501    -4.612412    -1.272349
    H    -0.015075000000000172    -4.634128    1.211689
    H    -0.008099999999999441    -2.4898710000000004    2.443647
    H    -0.8835850000000001    0.002249999999999752    2.143312
    H    0.835585    0.002249999999999752    2.148262

