%NProcShared=32
%mem = 128GB
#n M062X/6-311++G(d,p) TD(NStates=1) EmpiricalDispersion=GD3 SP
 
 SP_50

1 1
    C    -0.006950000000000012    2.492055    1.360431
    C    -0.010674999999999657    3.6956080000000004    0.671989
    C    -0.0024000000000000687    3.672811    -0.71383
    C    0.011874999999999858    2.455981    -1.407538
    C    0.011524999999999896    -2.4566809999999997    -1.407538
    C    -0.0044999999999998375    -3.6763109999999997    -0.71383
    C    -0.014000000000000457    -3.696833    0.671989
    C    -0.013600000000000056    -2.494155    1.360431
    C    -0.006650000000000001    0.007699999999999929    1.453369
    C    0.018300000000000004    -0.00034999999999996145    -1.429189
    C    0.0030000000000000027    1.26788    0.677065
    C    0.006800000000000084    1.237096    -0.730804
    C    0.0024750000000000605    -1.2677049999999996    0.677065
    C    0.00819999999999993    -1.2360460000000002    -0.730804
    H    0.0006999999999995898    2.4872710000000002    2.443647
    H    -0.010475000000000234    4.631128    1.211689
    H    0.0026999999999994806    4.607412    -1.272349
    H    0.004950000000000343    2.4606499999999993    -2.490059
    H    0.016875    -0.0001750000000003693    -2.510266
    H    0.00599999999999945    -2.461175000000001    -2.490059
    H    0.0016500000000003734    -4.6117870000000005    -1.272349
    H    -0.01450000000000018    -4.633753    1.211689
    H    -0.006999999999999562    -2.4895460000000007    2.443647
    H    -0.8835850000000001    0.0017499999999998073    2.143862
    H    0.835585    0.0017499999999998073    2.147712

