%NProcShared=32
%mem = 128GB
#n M062X/6-311++G(d,p) TD(NStates=1) EmpiricalDispersion=GD3 SP
 
 SP_100

1 1
    C    0.0008500000000000174    2.491455    1.360431
    C    -0.001974999999999505    3.698958    0.671989
    C    0.00019999999999986695    3.678511    -0.71383
    C    0.004124999999999934    2.4604310000000003    -1.407538
    C    0.003674999999999984    -2.461331    -1.407538
    C    -0.0024999999999998357    -3.683011    -0.71383
    C    -0.006250000000000533    -3.700533    0.671989
    C    -0.00770000000000004    -2.494155    1.360431
    C    -0.0023000000000000017    0.009899999999999909    1.453369
    C    0.006100000000000005    -0.00044999999999995044    -1.429189
    C    0.0012499999999999734    1.26408    0.677065
    C    0.0016000000000001013    1.2378459999999998    -0.730804
    C    0.0005750000000000477    -1.2638549999999997    0.677065
    C    0.003399999999999903    -1.236496    -0.730804
    H    0.0038999999999994595    2.486721    2.443647
    H    -0.001575000000000104    4.633628    1.211689
    H    0.0013999999999994017    4.606562    -1.272349
    H    0.0011500000000005395    2.4649999999999994    -2.490059
    H    0.0056250000000000015    -0.00022500000000047482    -2.510266
    H    0.0024999999999993916    -2.465675000000001    -2.490059
    H    5.0000000000549605e-05    -4.6121870000000005    -1.272349
    H    -0.006750000000000034    -4.637002999999999    1.211689
    H    -0.00599999999999945    -2.4896460000000005    2.443647
    H    -0.867585    0.002249999999999752    2.143312
    H    0.851585    0.002249999999999752    2.148262

