%NProcShared=32
%mem = 128GB
#n M062X/6-311++G(d,p) TD(NStates=1) EmpiricalDispersion=GD3 SP
 
 SP_75

1 1
    C    -0.003049999999999997    2.491755    1.360431
    C    -0.006324999999999581    3.697283    0.671989
    C    -0.001100000000000101    3.675661    -0.71383
    C    0.007999999999999896    2.458206    -1.407538
    C    0.00759999999999994    -2.4590059999999996    -1.407538
    C    -0.0034999999999998366    -3.679661    -0.71383
    C    -0.010125000000000495    -3.698683    0.671989
    C    -0.010650000000000048    -2.494155    1.360431
    C    -0.0044750000000000015    0.008799999999999919    1.453369
    C    0.012200000000000003    -0.00039999999999995595    -1.429189
    C    0.002124999999999988    1.2659799999999999    0.677065
    C    0.0042000000000000925    1.237471    -0.730804
    C    0.001525000000000054    -1.2657799999999997    0.677065
    C    0.005799999999999916    -1.2362710000000001    -0.730804
    H    0.0022999999999995246    2.486996    2.443647
    H    -0.006025000000000169    4.632378    1.211689
    H    0.002049999999999441    4.606987    -1.272349
    H    0.0030500000000004412    2.4628249999999996    -2.490059
    H    0.01125    -0.00020000000000042206    -2.510266
    H    0.004249999999999421    -2.463425000000001    -2.490059
    H    0.0008500000000004615    -4.611987    -1.272349
    H    -0.010625000000000107    -4.635377999999999    1.211689
    H    -0.006499999999999506    -2.4895960000000006    2.443647
    H    -0.8755850000000001    0.0019999999999997797    2.143587
    H    0.843585    0.0019999999999997797    2.1479869999999996

