%NProcShared=32
%mem = 128GB
#n M062X/6-311++G(d,p) TD(NStates=1) EmpiricalDispersion=GD3 SP
 
 SP_125

1 1
    C    0.019500000000000073    2.491155    1.360431
    C    0.02175000000000038    3.709883    0.671989
    C    0.006499999999999839    3.698111    -0.71383
    C    -0.01937499999999981    2.4742810000000004    -1.407538
    C    -0.01962499999999978    -2.474781    -1.407538
    C    0.0050000000000000044    -3.700611    -0.71383
    C    0.01937499999999981    -3.710758    0.671989
    C    0.01475000000000004    -2.492655    1.360431
    C    0.010875    0.005499999999999949    1.453369
    C    -0.030500000000000003    -0.00024999999999997247    -1.429189
    C    -0.004375000000000073    1.252555    0.677065
    C    -0.012999999999999956    1.2393459999999998    -0.730804
    C    -0.004750000000000032    -1.25243    0.677065
    C    -0.012000000000000066    -1.238596    -0.730804
    H    0.007999999999999674    2.4866960000000002    2.443647
    H    0.022250000000000325    4.643003    1.211689
    H    -0.003250000000000197    4.607137    -1.272349
    H    -0.009499999999999509    2.4784249999999997    -2.490059
    H    -0.028125    -0.0001250000000002638    -2.510266
    H    -0.008750000000000147    -2.4788000000000006    -2.490059
    H    -0.0039999999999995595    -4.6102620000000005    -1.272349
    H    0.019375000000000364    -4.644877999999999    1.211689
    H    0.0025000000000002798    -2.488321    2.443647
    H    -0.819585    0.0012499999999998623    2.144412
    H    0.8995850000000001    0.0012499999999998623    2.147162

