%NProcShared=32
%mem = 128GB
#n M062X/6-311++G(d,p) TD(NStates=1) EmpiricalDispersion=GD3 SP
 
 SP_150

1 1
    C    0.005700000000000038    2.490855    1.360431
    C    0.0028500000000006853    3.7004580000000002    0.671989
    C    0.0017999999999998018    3.6808609999999997    -0.71383
    C    0.00029999999999996696    2.4625560000000006    -1.407538
    C    -0.00029999999999996696    -2.463756    -1.407538
    C    -0.0017999999999998018    -3.686861    -0.71383
    C    -0.0028500000000006853    -3.702558    0.671989
    C    -0.005700000000000038    -2.4944550000000003    1.360431
    C    -0.00015000000000000083    0.013199999999999878    1.453369
    C    0.0    -0.0005999999999999339    -1.429189
    C    0.00044999999999995044    1.2622050000000002    0.677065
    C    -0.0011999999999998678    1.2383709999999999    -0.730804
    C    -0.00044999999999995044    -1.2619049999999998    0.677065
    C    0.0011999999999998678    -1.236571    -0.730804
    H    0.006599999999999273    2.486121    2.443647
    H    0.003449999999999953    4.6345030000000005    1.211689
    H    0.0008999999999992347    4.605512    -1.272349
    H    -0.0008999999999992347    2.4670999999999994    -2.490059
    H    0.0    -0.0003000000000006331    -2.510266
    H    0.0008999999999992347    -2.468000000000001    -2.490059
    H    -0.0008999999999992347    -4.613012    -1.272349
    H    -0.003449999999999953    -4.639002999999999    1.211689
    H    -0.006599999999999273    -2.490021    2.443647
    H    -0.859585    0.0029999999999996696    2.1424869999999996
    H    0.859585    0.0029999999999996696    2.149087

