%NProcShared=32
%mem = 128GB
#n M062X/6-311++G(d,p) TD(NStates=1) EmpiricalDispersion=GD3 SP
 
 SP_100

1 1
    C    0.01265000000000005    2.491455    1.360431
    C    0.013525000000000342    3.706358    0.671989
    C    0.0041999999999998705    3.6919109999999997    -0.71383
    C    -0.011574999999999891    2.4697310000000003    -1.407538
    C    -0.011824999999999863    -2.470231    -1.407538
    C    0.0027000000000000357    -3.694411    -0.71383
    C    0.011149999999999771    -3.707233    0.671989
    C    0.007900000000000018    -2.4929550000000003    1.360431
    C    0.006499999999999999    0.005499999999999949    1.453369
    C    -0.018299999999999997    -0.00024999999999997247    -1.429189
    C    -0.0025500000000000522    1.25638    0.677065
    C    -0.007999999999999952    1.238746    -0.730804
    C    -0.002925000000000011    -1.256255    0.677065
    C    -0.007000000000000062    -1.2379959999999999    -0.730804
    H    0.005899999999999683    2.486921    2.443647
    H    0.013925000000000187    4.640128    1.211689
    H    -0.0018000000000002458    4.607362    -1.272349
    H    -0.005849999999999578    2.4739999999999998    -2.490059
    H    -0.016875    -0.0001250000000002638    -2.510266
    H    -0.0051000000000002155    -2.4743750000000007    -2.490059
    H    -0.002549999999999608    -4.610487    -1.272349
    H    0.011050000000000226    -4.642003    1.211689
    H    0.000400000000000289    -2.4885460000000004    2.443647
    H    -0.835585    0.0012499999999998623    2.144412
    H    0.8835850000000001    0.0012499999999998623    2.147162

