%NProcShared=32
%mem = 128GB
#n M062X/6-311++G(d,p) TD(NStates=1) EmpiricalDispersion=GD3 SP
 
 SP_0

1 1
    C    -0.01475000000000004    2.492655    1.360431
    C    -0.01937499999999981    3.6922580000000003    0.671989
    C    -0.0050000000000000044    3.667111    -0.71383
    C    0.01962499999999978    2.451531    -1.407538
    C    0.01937499999999981    -2.452031    -1.407538
    C    -0.006499999999999839    -3.6696109999999997    -0.71383
    C    -0.02175000000000038    -3.693133    0.671989
    C    -0.019500000000000073    -2.494155    1.360431
    C    -0.011000000000000001    0.005499999999999949    1.453369
    C    0.030500000000000003    -0.00024999999999997247    -1.429189
    C    0.004750000000000032    1.27168    0.677065
    C    0.012000000000000066    1.236346    -0.730804
    C    0.004375000000000073    -1.2715549999999998    0.677065
    C    0.012999999999999956    -1.2355960000000001    -0.730804
    H    -0.0025000000000002798    2.4878210000000003    2.443647
    H    -0.019375000000000364    4.628628    1.211689
    H    0.0039999999999995595    4.608262    -1.272349
    H    0.008750000000000147    2.4562999999999997    -2.490059
    H    0.028125    -0.0001250000000002638    -2.510266
    H    0.009499999999999509    -2.4566750000000006    -2.490059
    H    0.003250000000000197    -4.611387000000001    -1.272349
    H    -0.022250000000000325    -4.630502999999999    1.211689
    H    -0.007999999999999674    -2.489446    2.443647
    H    -0.8995850000000001    0.0012499999999998623    2.144412
    H    0.819585    0.0012499999999998623    2.147162

