%NProcShared=16
%mem = 64GB
#n M062X/6-311++G(d,p) TD(NStates=1) EmpiricalDispersion=GD3 SP
 
 SP_4

1 1
    C    2.4927    1.3171    0.008
    C    3.7015    0.6567    0.068
    C    3.6839    -0.6850999999999999    0.068
    C    2.4632    -1.3509    0.008
    C    -2.4632    -1.4469    0.008
    C    -3.6839    -0.7251    0.068
    C    -3.7015    0.7047    0.068
    C    -2.4927    1.4211    0.008
    C    0.0    1.4621    -0.06
    C    0.0    -1.4205    -0.06
    C    1.2621    0.6737    -0.052000000000000005
    C    1.2375    -0.7141    -0.052000000000000005
    C    -1.2621    0.6977    -0.052000000000000005
    C    -1.2375    -0.7301    -0.052000000000000005
    H    2.4881    2.3363    0.008
    H    4.6368    1.1764    0.10400000000000001
    H    4.6093    -1.2237    0.10400000000000001
    H    2.4675    -2.3733999999999997    0.008
    H    0.0    -2.5016    -0.064
    H    -2.4675    -2.5894    0.008
    H    -4.6093    -1.3037    0.10400000000000001
    H    -4.6368    1.2644    0.10400000000000001
    H    -2.4881    2.5683000000000002    0.008
    H    0.0    2.1545    -0.9196
    H    0.0    2.1545    0.7996000000000001

