%NProcShared=16
%mem = 64GB
#n M062X/6-311++G(d,p) TD(NStates=1) EmpiricalDispersion=GD3 SP
 
 SP_4

1 1
    C    2.4927    1.2530999999999999    0.008
    C    3.7015    0.5847    0.036000000000000004
    C    3.6839    -0.7211    0.0040000000000000036
    C    2.4632    -1.2709    -0.024
    C    -2.4632    -1.3669    0.04
    C    -3.6839    -0.7611    0.132
    C    -3.7015    0.6327    0.1
    C    -2.4927    1.3571    0.008
    C    0.0    1.4301    -0.06
    C    0.0    -1.3045    -0.06
    C    1.2621    0.7097    -0.008000000000000007
    C    1.2375    -0.6780999999999999    -0.05600000000000001
    C    -1.2621    0.7337    -0.096
    C    -1.2375    -0.6940999999999999    -0.048
    H    2.4881    2.3163    0.008
    H    4.6368    1.1043999999999998    0.07600000000000001
    H    4.6093    -1.2277    0.096
    H    2.4675    -2.3373999999999997    -0.024
    H    0.0    -2.4015999999999997    -0.064
    H    -2.4675    -2.5534    0.04
    H    -4.6093    -1.3077    0.11200000000000002
    H    -4.6368    1.1924    0.132
    H    -2.4881    2.5483000000000002    0.008
    H    0.0    1.9785000000000001    -0.9196
    H    0.0    1.9785000000000001    0.7996000000000001

