%NProcShared=16
%mem = 64GB
#n M062X/6-311++G(d,p) TD(NStates=1) EmpiricalDispersion=GD3 SP
 
 SP_3

1 1
    C    2.4927    1.2981    0.006
    C    3.7015    0.6266999999999999    0.035
    C    3.6839    -0.7081    0.019000000000000003
    C    2.4632    -1.3229    -0.01
    C    -2.4632    -1.3949    0.022
    C    -3.6839    -0.7381    0.083
    C    -3.7015    0.6627    0.067
    C    -2.4927    1.3760999999999999    0.006
    C    0.0    1.4461    -0.045
    C    0.0    -1.3625    -0.045
    C    1.2621    0.6947    -0.017
    C    1.2375    -0.6980999999999999    -0.041
    C    -1.2621    0.7127    -0.061
    C    -1.2375    -0.7101    -0.037
    H    2.4881    2.3553    0.006
    H    4.6368    1.1514    0.064
    H    4.6093    -1.2357    0.074
    H    2.4675    -2.3824    -0.01
    H    0.0    -2.4516    -0.048
    H    -2.4675    -2.5444    0.022
    H    -4.6093    -1.2957    0.082
    H    -4.6368    1.2173999999999998    0.092
    H    -2.4881    2.5293000000000005    0.006
    H    0.0    2.0665    -0.9046000000000001
    H    0.0    2.0665    0.8146

