%NProcShared=16
%mem = 64GB
#n M062X/6-311++G(d,p) TD(NStates=1) EmpiricalDispersion=GD3 SP
 
 SP_2

1 1
    C    2.4927    1.3431    0.004
    C    3.7015    0.6687    0.034
    C    3.6839    -0.6950999999999999    0.034
    C    2.4632    -1.3749    0.004
    C    -2.4632    -1.4229    0.004
    C    -3.6839    -0.7151    0.034
    C    -3.7015    0.6927    0.034
    C    -2.4927    1.3951    0.004
    C    0.0    1.4621    -0.03
    C    0.0    -1.4205    -0.03
    C    1.2621    0.6797    -0.026000000000000002
    C    1.2375    -0.7181    -0.026000000000000002
    C    -1.2621    0.6917    -0.026000000000000002
    C    -1.2375    -0.7261    -0.026000000000000002
    H    2.4881    2.3943000000000003    0.004
    H    4.6368    1.1984    0.052000000000000005
    H    4.6093    -1.2437    0.052000000000000005
    H    2.4675    -2.4274    0.004
    H    0.0    -2.5016    -0.032
    H    -2.4675    -2.5353999999999997    0.004
    H    -4.6093    -1.2837    0.052000000000000005
    H    -4.6368    1.2424    0.052000000000000005
    H    -2.4881    2.5103    0.004
    H    0.0    2.1545    -0.8896000000000001
    H    0.0    2.1545    0.8296

