%NProcShared=16
%mem = 64GB
#n M062X/6-311++G(d,p) TD(NStates=1) EmpiricalDispersion=GD3 SP
 
 SP_1

1 1
    C    2.4927    1.3241    0.002
    C    3.7015    0.6386999999999999    0.0010000000000000009
    C    3.6839    -0.7181    -0.015
    C    2.4632    -1.3469    -0.014
    C    -2.4632    -1.3709    0.018000000000000002
    C    -3.6839    -0.7281    0.049
    C    -3.7015    0.6507    0.033
    C    -2.4927    1.3500999999999999    0.002
    C    0.0    1.4461    -0.015
    C    0.0    -1.3625    -0.015
    C    1.2621    0.7007    0.008999999999999998
    C    1.2375    -0.7021    -0.015000000000000001
    C    -1.2621    0.7067    -0.035
    C    -1.2375    -0.7061    -0.011000000000000001
    H    2.4881    2.4133000000000004    0.002
    H    4.6368    1.1734    0.012
    H    4.6093    -1.2557    0.022000000000000002
    H    2.4675    -2.4364    -0.014
    H    0.0    -2.4516    -0.016
    H    -2.4675    -2.4904    0.018000000000000002
    H    -4.6093    -1.2757    0.030000000000000002
    H    -4.6368    1.1953999999999998    0.04000000000000001
    H    -2.4881    2.4713000000000003    0.002
    H    0.0    2.0665    -0.8746
    H    0.0    2.0665    0.8446

