%NProcShared=16
%mem = 64GB
#n M062X/6-311++G(d,p) TD(NStates=1) EmpiricalDispersion=GD3 SP
 
 SP_3

1 1
    C    2.4927    1.2821    0.006
    C    3.7015    0.6086999999999999    0.027000000000000003
    C    3.6839    -0.7171    0.0030000000000000027
    C    2.4632    -1.3029    -0.018000000000000002
    C    -2.4632    -1.3749    0.03
    C    -3.6839    -0.7471    0.099
    C    -3.7015    0.6446999999999999    0.07500000000000001
    C    -2.4927    1.3600999999999999    0.006
    C    0.0    1.4381    -0.045
    C    0.0    -1.3335000000000001    -0.045
    C    1.2621    0.7037    -0.005999999999999998
    C    1.2375    -0.6890999999999999    -0.042
    C    -1.2621    0.7217    -0.07200000000000001
    C    -1.2375    -0.7011    -0.036
    H    2.4881    2.3503    0.006
    H    4.6368    1.1334    0.056999999999999995
    H    4.6093    -1.2367    0.072
    H    2.4675    -2.3733999999999997    -0.018000000000000002
    H    0.0    -2.4265999999999996    -0.048
    H    -2.4675    -2.5353999999999997    0.03
    H    -4.6093    -1.2967    0.084
    H    -4.6368    1.1993999999999998    0.099
    H    -2.4881    2.5243    0.006
    H    0.0    2.0225    -0.9046000000000001
    H    0.0    2.0225    0.8146

