%NProcShared=16
%mem = 64GB
#n M062X/6-311++G(d,p) TD(NStates=1) EmpiricalDispersion=GD3 SP
 
 SP_3

1 1
    C    2.4927    1.3141    0.006
    C    3.7015    0.6446999999999999    0.043000000000000003
    C    3.6839    -0.6990999999999999    0.035
    C    2.4632    -1.3429    -0.002
    C    -2.4632    -1.4149    0.014
    C    -3.6839    -0.7291    0.067
    C    -3.7015    0.6807    0.059000000000000004
    C    -2.4927    1.3921    0.006
    C    0.0    1.4541    -0.045
    C    0.0    -1.3915000000000002    -0.045
    C    1.2621    0.6857    -0.028
    C    1.2375    -0.7071    -0.04
    C    -1.2621    0.7037    -0.05
    C    -1.2375    -0.7191    -0.038
    H    2.4881    2.3603    0.006
    H    4.6368    1.1694    0.071
    H    4.6093    -1.2347    0.076
    H    2.4675    -2.3914    -0.002
    H    0.0    -2.4766    -0.048
    H    -2.4675    -2.5534    0.014
    H    -4.6093    -1.2947    0.08
    H    -4.6368    1.2353999999999998    0.085
    H    -2.4881    2.5343000000000004    0.006
    H    0.0    2.1105    -0.9046000000000001
    H    0.0    2.1105    0.8146

