%NProcShared=16
%mem = 64GB
#n M062X/6-311++G(d,p) TD(NStates=1) EmpiricalDispersion=GD3 SP
 
 SP_0

1 1
    C    2.4927    1.3051    0.0
    C    3.7015    0.6087    -0.032
    C    3.6839    -0.7411    -0.064
    C    2.4632    -1.3189    -0.032
    C    -2.4632    -1.3189    0.032
    C    -3.6839    -0.7411    0.064
    C    -3.7015    0.6087    0.032
    C    -2.4927    1.3051    0.0
    C    0.0    1.4301    0.0
    C    0.0    -1.3045    0.0
    C    1.2621    0.7217    0.044
    C    1.2375    -0.6860999999999999    -0.004
    C    -1.2621    0.7217    -0.044
    C    -1.2375    -0.6860999999999999    0.004
    H    2.4881    2.4323    0.0
    H    4.6368    1.1483999999999999    -0.028000000000000004
    H    4.6093    -1.2677    -0.008
    H    2.4675    -2.4454    -0.032
    H    0.0    -2.4015999999999997    0.0
    H    -2.4675    -2.4454    0.032
    H    -4.6093    -1.2677    0.008
    H    -4.6368    1.1483999999999999    0.028000000000000004
    H    -2.4881    2.4323    0.0
    H    0.0    1.9785000000000001    -0.8596
    H    0.0    1.9785000000000001    0.8596

