%NProcShared=16
%mem = 64GB
#n M062X/6-311++G(d,p) TD(NStates=1) EmpiricalDispersion=GD3 SP
 
 SP_1

1 1
    C    2.4927    1.3561    0.002
    C    3.7015    0.6747    0.017
    C    3.6839    -0.7001    0.017
    C    2.4632    -1.3869    0.002
    C    -2.4632    -1.4109    0.002
    C    -3.6839    -0.7101    0.017
    C    -3.7015    0.6867    0.017
    C    -2.4927    1.3820999999999999    0.002
    C    0.0    1.4621    -0.015
    C    0.0    -1.4205    -0.015
    C    1.2621    0.6827    -0.013000000000000001
    C    1.2375    -0.7201    -0.013000000000000001
    C    -1.2621    0.6887    -0.013000000000000001
    C    -1.2375    -0.7241    -0.013000000000000001
    H    2.4881    2.4233000000000002    0.002
    H    4.6368    1.2094    0.026000000000000002
    H    4.6093    -1.2537    0.026000000000000002
    H    2.4675    -2.4543999999999997    0.002
    H    0.0    -2.5016    -0.016
    H    -2.4675    -2.5084    0.002
    H    -4.6093    -1.2737    0.026000000000000002
    H    -4.6368    1.2313999999999998    0.026000000000000002
    H    -2.4881    2.4813    0.002
    H    0.0    2.1545    -0.8746
    H    0.0    2.1545    0.8446

