%NProcShared=16
%mem = 64GB
#n M062X/6-311++G(d,p) TD(NStates=1) EmpiricalDispersion=GD3 SP
 
 SP_2

1 1
    C    2.4927    1.3271    0.004
    C    3.7015    0.6507    0.026000000000000002
    C    3.6839    -0.7041    0.018000000000000002
    C    2.4632    -1.3549    -0.004
    C    -2.4632    -1.4029    0.012
    C    -3.6839    -0.7241    0.05
    C    -3.7015    0.6747    0.042
    C    -2.4927    1.3791    0.004
    C    0.0    1.4541    -0.03
    C    0.0    -1.3915000000000002    -0.03
    C    1.2621    0.6887    -0.015000000000000003
    C    1.2375    -0.7091    -0.027000000000000003
    C    -1.2621    0.7007    -0.037000000000000005
    C    -1.2375    -0.7171    -0.025
    H    2.4881    2.3893000000000004    0.004
    H    4.6368    1.1804    0.045000000000000005
    H    4.6093    -1.2447    0.05
    H    2.4675    -2.4184    -0.004
    H    0.0    -2.4766    -0.032
    H    -2.4675    -2.5263999999999998    0.012
    H    -4.6093    -1.2847    0.054000000000000006
    H    -4.6368    1.2244    0.059000000000000004
    H    -2.4881    2.5053    0.004
    H    0.0    2.1105    -0.8896000000000001
    H    0.0    2.1105    0.8296

