%NProcShared=16
%mem = 64GB
#n M062X/6-311++G(d,p) TD(NStates=1) EmpiricalDispersion=GD3 SP
 
 SP_2

1 1
    C    2.4927    1.2791    0.004
    C    3.7015    0.5967    0.0020000000000000018
    C    3.6839    -0.7311    -0.03
    C    2.4632    -1.2949    -0.028
    C    -2.4632    -1.3429    0.036000000000000004
    C    -3.6839    -0.7511    0.098
    C    -3.7015    0.6207    0.066
    C    -2.4927    1.3311    0.004
    C    0.0    1.4301    -0.03
    C    0.0    -1.3045    -0.03
    C    1.2621    0.7157    0.017999999999999995
    C    1.2375    -0.6820999999999999    -0.030000000000000002
    C    -1.2621    0.7277    -0.07
    C    -1.2375    -0.6900999999999999    -0.022000000000000002
    H    2.4881    2.3743000000000003    0.004
    H    4.6368    1.1263999999999998    0.024
    H    4.6093    -1.2477    0.044000000000000004
    H    2.4675    -2.3914    -0.028
    H    0.0    -2.4015999999999997    -0.032
    H    -2.4675    -2.4993999999999996    0.036000000000000004
    H    -4.6093    -1.2877    0.060000000000000005
    H    -4.6368    1.1703999999999999    0.08000000000000002
    H    -2.4881    2.4903    0.004
    H    0.0    1.9785000000000001    -0.8896000000000001
    H    0.0    1.9785000000000001    0.8296

