%NProcShared=16
%mem = 64GB
#n M062X/6-311++G(d,p) TD(NStates=1) EmpiricalDispersion=GD3 SP
 
 SP_5

1 1
    C    2.4927    1.3041    0.01
    C    3.7015    0.6507    0.085
    C    3.6839    -0.6800999999999999    0.085
    C    2.4632    -1.3389    0.01
    C    -2.4632    -1.4589    0.01
    C    -3.6839    -0.7301    0.085
    C    -3.7015    0.7107    0.085
    C    -2.4927    1.4341    0.01
    C    0.0    1.4621    -0.075
    C    0.0    -1.4205    -0.075
    C    1.2621    0.6707    -0.065
    C    1.2375    -0.7121    -0.065
    C    -1.2621    0.7007    -0.065
    C    -1.2375    -0.7321    -0.065
    H    2.4881    2.3073    0.01
    H    4.6368    1.1654    0.13
    H    4.6093    -1.2137    0.13
    H    2.4675    -2.3464    0.01
    H    0.0    -2.5016    -0.08
    H    -2.4675    -2.6163999999999996    0.01
    H    -4.6093    -1.3137    0.13
    H    -4.6368    1.2753999999999999    0.13
    H    -2.4881    2.5973    0.01
    H    0.0    2.1545    -0.9346
    H    0.0    2.1545    0.7846000000000001

