%NProcShared=16
%mem = 64GB
#n M062X/6-311++G(d,p) TD(NStates=1) EmpiricalDispersion=GD3 SP
 
 SP_5

1 1
    C    2.4927    1.2721    0.01
    C    3.7015    0.6146999999999999    0.069
    C    3.6839    -0.6980999999999999    0.053000000000000005
    C    2.4632    -1.2989    -0.006
    C    -2.4632    -1.4189    0.026000000000000002
    C    -3.6839    -0.7481    0.117
    C    -3.7015    0.6747    0.101
    C    -2.4927    1.4021    0.01
    C    0.0    1.4461    -0.075
    C    0.0    -1.3625    -0.075
    C    1.2621    0.6887    -0.043000000000000003
    C    1.2375    -0.6940999999999999    -0.067
    C    -1.2621    0.7187    -0.087
    C    -1.2375    -0.7141    -0.063
    H    2.4881    2.2973000000000003    0.01
    H    4.6368    1.1294    0.116
    H    4.6093    -1.2157    0.126
    H    2.4675    -2.3284000000000002    -0.006
    H    0.0    -2.4516    -0.08
    H    -2.4675    -2.5984    0.026000000000000002
    H    -4.6093    -1.3157    0.134
    H    -4.6368    1.2393999999999998    0.14400000000000002
    H    -2.4881    2.5873000000000004    0.01
    H    0.0    2.0665    -0.9346
    H    0.0    2.0665    0.7846000000000001

