%NProcShared=16
%mem = 64GB
#n M062X/6-311++G(d,p) TD(NStates=1) EmpiricalDispersion=GD3 SP
 
 SP_1

1 1
    C    2.4927    1.3081    0.002
    C    3.7015    0.6206999999999999    -0.006999999999999999
    C    3.6839    -0.7271    -0.031
    C    2.4632    -1.3269    -0.022
    C    -2.4632    -1.3509    0.026000000000000002
    C    -3.6839    -0.7371    0.065
    C    -3.7015    0.6326999999999999    0.041
    C    -2.4927    1.3340999999999998    0.002
    C    0.0    1.4381    -0.015
    C    0.0    -1.3335000000000001    -0.015
    C    1.2621    0.7097    0.02
    C    1.2375    -0.6930999999999999    -0.016
    C    -1.2621    0.7157    -0.046
    C    -1.2375    -0.6970999999999999    -0.010000000000000002
    H    2.4881    2.4083    0.002
    H    4.6368    1.1554    0.005000000000000001
    H    4.6093    -1.2567    0.020000000000000004
    H    2.4675    -2.4273999999999996    -0.022
    H    0.0    -2.4265999999999996    -0.016
    H    -2.4675    -2.4814    0.026000000000000002
    H    -4.6093    -1.2767    0.032
    H    -4.6368    1.1773999999999998    0.047
    H    -2.4881    2.4663    0.002
    H    0.0    2.0225    -0.8746
    H    0.0    2.0225    0.8446

