%NProcShared=16
%mem = 64GB
#n M062X/6-311++G(d,p) TD(NStates=1) EmpiricalDispersion=GD3 SP
 
 SP_5

1 1
    C    2.4927    1.2881    0.01
    C    3.7015    0.6326999999999999    0.07700000000000001
    C    3.6839    -0.6890999999999999    0.069
    C    2.4632    -1.3189    0.002
    C    -2.4632    -1.4389    0.018000000000000002
    C    -3.6839    -0.7391    0.101
    C    -3.7015    0.6927    0.093
    C    -2.4927    1.4181    0.01
    C    0.0    1.4541    -0.075
    C    0.0    -1.3915000000000002    -0.075
    C    1.2621    0.6797    -0.054000000000000006
    C    1.2375    -0.7031    -0.066
    C    -1.2621    0.7097    -0.076
    C    -1.2375    -0.7231    -0.064
    H    2.4881    2.3023000000000002    0.01
    H    4.6368    1.1474    0.123
    H    4.6093    -1.2147    0.128
    H    2.4675    -2.3374    0.002
    H    0.0    -2.4766    -0.08
    H    -2.4675    -2.6073999999999997    0.018000000000000002
    H    -4.6093    -1.3147    0.132
    H    -4.6368    1.2573999999999999    0.137
    H    -2.4881    2.5923000000000003    0.01
    H    0.0    2.1105    -0.9346
    H    0.0    2.1105    0.7846000000000001

