%NProcShared=16
%mem = 64GB
#n M062X/6-311++G(d,p) TD(NStates=1) EmpiricalDispersion=GD3 SP
 
 SP_2

1 1
    C    2.4927    1.2951    0.004
    C    3.7015    0.6146999999999999    0.010000000000000002
    C    3.6839    -0.7221    -0.013999999999999999
    C    2.4632    -1.3149    -0.02
    C    -2.4632    -1.3629    0.028
    C    -3.6839    -0.7421    0.082
    C    -3.7015    0.6386999999999999    0.058
    C    -2.4927    1.3471    0.004
    C    0.0    1.4381    -0.03
    C    0.0    -1.3335000000000001    -0.03
    C    1.2621    0.7067    0.006999999999999999
    C    1.2375    -0.6910999999999999    -0.029
    C    -1.2621    0.7187    -0.059000000000000004
    C    -1.2375    -0.6990999999999999    -0.023000000000000003
    H    2.4881    2.3793    0.004
    H    4.6368    1.1443999999999999    0.031000000000000003
    H    4.6093    -1.2467    0.046000000000000006
    H    2.4675    -2.4004    -0.02
    H    0.0    -2.4265999999999996    -0.032
    H    -2.4675    -2.5083999999999995    0.028
    H    -4.6093    -1.2867    0.058
    H    -4.6368    1.1884    0.07300000000000001
    H    -2.4881    2.4953    0.004
    H    0.0    2.0225    -0.8896000000000001
    H    0.0    2.0225    0.8296

