%NProcShared=16
%mem = 64GB
#n M062X/6-311++G(d,p) TD(NStates=1) EmpiricalDispersion=GD3 SP
 
 SP_5

1 1
    C    2.4927    1.2561    0.01
    C    3.7015    0.5966999999999999    0.061000000000000006
    C    3.6839    -0.7071    0.037000000000000005
    C    2.4632    -1.2789    -0.014
    C    -2.4632    -1.3989    0.034
    C    -3.6839    -0.7571    0.133
    C    -3.7015    0.6567    0.10900000000000001
    C    -2.4927    1.3860999999999999    0.01
    C    0.0    1.4381    -0.075
    C    0.0    -1.3335000000000001    -0.075
    C    1.2621    0.6977    -0.032
    C    1.2375    -0.6850999999999999    -0.068
    C    -1.2621    0.7277    -0.098
    C    -1.2375    -0.7051    -0.062
    H    2.4881    2.2923    0.01
    H    4.6368    1.1114    0.109
    H    4.6093    -1.2167    0.124
    H    2.4675    -2.3194    -0.014
    H    0.0    -2.4265999999999996    -0.08
    H    -2.4675    -2.5893999999999995    0.034
    H    -4.6093    -1.3167    0.136
    H    -4.6368    1.2213999999999998    0.151
    H    -2.4881    2.5823    0.01
    H    0.0    2.0225    -0.9346
    H    0.0    2.0225    0.7846000000000001

