%NProcShared=16
%mem = 64GB
#n M062X/6-311++G(d,p) TD(NStates=1) EmpiricalDispersion=GD3 SP
 
 SP_2

1 1
    C    2.4927    1.2631    0.004
    C    3.7015    0.5787    -0.005999999999999998
    C    3.6839    -0.7401    -0.046
    C    2.4632    -1.2749    -0.036000000000000004
    C    -2.4632    -1.3229    0.044
    C    -3.6839    -0.7601    0.114
    C    -3.7015    0.6027    0.07400000000000001
    C    -2.4927    1.3151    0.004
    C    0.0    1.4221    -0.03
    C    0.0    -1.2755    -0.03
    C    1.2621    0.7247    0.029000000000000005
    C    1.2375    -0.6730999999999999    -0.031000000000000003
    C    -1.2621    0.7367    -0.08100000000000002
    C    -1.2375    -0.6810999999999999    -0.021
    H    2.4881    2.3693000000000004    0.004
    H    4.6368    1.1083999999999998    0.017
    H    4.6093    -1.2487    0.042
    H    2.4675    -2.3824    -0.036000000000000004
    H    0.0    -2.3766    -0.032
    H    -2.4675    -2.4903999999999997    0.044
    H    -4.6093    -1.2887    0.062000000000000006
    H    -4.6368    1.1523999999999999    0.08700000000000001
    H    -2.4881    2.4853    0.004
    H    0.0    1.9345    -0.8896000000000001
    H    0.0    1.9345    0.8296

