%NProcShared=16
%mem = 64GB
#n M062X/6-311++G(d,p) TD(NStates=1) EmpiricalDispersion=GD3 SP
 
 SP_1

1 1
    C    2.4927    1.3401    0.002
    C    3.7015    0.6567    0.009000000000000001
    C    3.6839    -0.7091    0.0010000000000000009
    C    2.4632    -1.3669    -0.006
    C    -2.4632    -1.3909    0.01
    C    -3.6839    -0.7191    0.033
    C    -3.7015    0.6687    0.025
    C    -2.4927    1.3660999999999999    0.002
    C    0.0    1.4541    -0.015
    C    0.0    -1.3915000000000002    -0.015
    C    1.2621    0.6917    -0.0020000000000000018
    C    1.2375    -0.7111    -0.014000000000000002
    C    -1.2621    0.6977    -0.024
    C    -1.2375    -0.7151    -0.012
    H    2.4881    2.4183000000000003    0.002
    H    4.6368    1.1914    0.019000000000000003
    H    4.6093    -1.2547    0.024
    H    2.4675    -2.4454    -0.006
    H    0.0    -2.4766    -0.016
    H    -2.4675    -2.4994    0.01
    H    -4.6093    -1.2747    0.028000000000000004
    H    -4.6368    1.2133999999999998    0.033
    H    -2.4881    2.4763    0.002
    H    0.0    2.1105    -0.8746
    H    0.0    2.1105    0.8446

