%NProcShared=16
%mem = 64GB
#n M062X/6-311++G(d,p) TD(NStates=1) EmpiricalDispersion=GD3 SP
 
 SP_5

1 1
    C    2.4927    1.2241    0.01
    C    3.7015    0.5607    0.045000000000000005
    C    3.6839    -0.7251    0.0050000000000000044
    C    2.4632    -1.2389    -0.03
    C    -2.4632    -1.3589    0.05
    C    -3.6839    -0.7751    0.165
    C    -3.7015    0.6207    0.125
    C    -2.4927    1.3540999999999999    0.01
    C    0.0    1.4221    -0.075
    C    0.0    -1.2755    -0.075
    C    1.2621    0.7157    -0.009999999999999995
    C    1.2375    -0.6670999999999999    -0.07
    C    -1.2621    0.7457    -0.12000000000000001
    C    -1.2375    -0.6870999999999999    -0.060000000000000005
    H    2.4881    2.2823    0.01
    H    4.6368    1.0754    0.095
    H    4.6093    -1.2187    0.12000000000000001
    H    2.4675    -2.3014    -0.03
    H    0.0    -2.3766    -0.08
    H    -2.4675    -2.5713999999999997    0.05
    H    -4.6093    -1.3187    0.14
    H    -4.6368    1.1853999999999998    0.165
    H    -2.4881    2.5723000000000003    0.01
    H    0.0    1.9345    -0.9346
    H    0.0    1.9345    0.7846000000000001

