%NProcShared=16
%mem = 64GB
#n M062X/6-311++G(d,p) TD(NStates=1) EmpiricalDispersion=GD3 SP
 
 SP_1

1 1
    C    2.4927    1.2921    0.002
    C    3.7015    0.6027    -0.015
    C    3.6839    -0.7361    -0.047
    C    2.4632    -1.3069    -0.03
    C    -2.4632    -1.3309    0.034
    C    -3.6839    -0.7461    0.081
    C    -3.7015    0.6147    0.049
    C    -2.4927    1.3180999999999998    0.002
    C    0.0    1.4301    -0.015
    C    0.0    -1.3045    -0.015
    C    1.2621    0.7187    0.030999999999999996
    C    1.2375    -0.6840999999999999    -0.017
    C    -1.2621    0.7247    -0.056999999999999995
    C    -1.2375    -0.6880999999999999    -0.009000000000000001
    H    2.4881    2.4033    0.002
    H    4.6368    1.1374    -0.0020000000000000018
    H    4.6093    -1.2577    0.018000000000000002
    H    2.4675    -2.4183999999999997    -0.03
    H    0.0    -2.4015999999999997    -0.016
    H    -2.4675    -2.4724    0.034
    H    -4.6093    -1.2777    0.034
    H    -4.6368    1.1593999999999998    0.054000000000000006
    H    -2.4881    2.4613    0.002
    H    0.0    1.9785000000000001    -0.8746
    H    0.0    1.9785000000000001    0.8446

