%NProcShared=16
%mem = 64GB
#n M062X/6-311++G(d,p) TD(NStates=1) EmpiricalDispersion=GD3 SP
 
 SP_4

1 1
    C    2.4927    1.2691    0.008
    C    3.7015    0.6026999999999999    0.044000000000000004
    C    3.6839    -0.7121    0.020000000000000004
    C    2.4632    -1.2909    -0.016
    C    -2.4632    -1.3869    0.032
    C    -3.6839    -0.7521    0.116
    C    -3.7015    0.6507    0.092
    C    -2.4927    1.3731    0.008
    C    0.0    1.4381    -0.06
    C    0.0    -1.3335000000000001    -0.06
    C    1.2621    0.7007    -0.019000000000000003
    C    1.2375    -0.6870999999999999    -0.05500000000000001
    C    -1.2621    0.7247    -0.085
    C    -1.2375    -0.7031    -0.049
    H    2.4881    2.3213    0.008
    H    4.6368    1.1223999999999998    0.083
    H    4.6093    -1.2267    0.098
    H    2.4675    -2.3463999999999996    -0.016
    H    0.0    -2.4265999999999996    -0.064
    H    -2.4675    -2.5624    0.032
    H    -4.6093    -1.3067    0.11000000000000001
    H    -4.6368    1.2104    0.125
    H    -2.4881    2.5533    0.008
    H    0.0    2.0225    -0.9196
    H    0.0    2.0225    0.7996000000000001

