%NProcShared=16
%mem = 64GB
#n M062X/6-311++G(d,p) TD(NStates=1) EmpiricalDispersion=GD3 SP
 
 SP_3

1 1
    C    2.4927    1.2661    0.006
    C    3.7015    0.5907    0.019000000000000003
    C    3.6839    -0.7261    -0.012999999999999998
    C    2.4632    -1.2829    -0.026000000000000002
    C    -2.4632    -1.3549    0.038
    C    -3.6839    -0.7561    0.115
    C    -3.7015    0.6267    0.083
    C    -2.4927    1.3440999999999999    0.006
    C    0.0    1.4301    -0.045
    C    0.0    -1.3045    -0.045
    C    1.2621    0.7127    0.0049999999999999975
    C    1.2375    -0.6800999999999999    -0.043
    C    -1.2621    0.7307    -0.08299999999999999
    C    -1.2375    -0.6920999999999999    -0.035
    H    2.4881    2.3453    0.006
    H    4.6368    1.1154    0.049999999999999996
    H    4.6093    -1.2377    0.07
    H    2.4675    -2.3644    -0.026000000000000002
    H    0.0    -2.4015999999999997    -0.048
    H    -2.4675    -2.5263999999999998    0.038
    H    -4.6093    -1.2977    0.086
    H    -4.6368    1.1813999999999998    0.10600000000000001
    H    -2.4881    2.5193000000000003    0.006
    H    0.0    1.9785000000000001    -0.9046000000000001
    H    0.0    1.9785000000000001    0.8146

