%NProcShared=16
%mem = 64GB
#n M062X/6-311++G(d,p) TD(NStates=1) EmpiricalDispersion=GD3 SP
 
 SP_2

1 1
    C    2.4927    1.3111    0.004
    C    3.7015    0.6326999999999999    0.018000000000000002
    C    3.6839    -0.7131    0.0020000000000000018
    C    2.4632    -1.3349    -0.012
    C    -2.4632    -1.3829    0.02
    C    -3.6839    -0.7331    0.066
    C    -3.7015    0.6567    0.05
    C    -2.4927    1.3631    0.004
    C    0.0    1.4461    -0.03
    C    0.0    -1.3625    -0.03
    C    1.2621    0.6977    -0.0040000000000000036
    C    1.2375    -0.7001    -0.028000000000000004
    C    -1.2621    0.7097    -0.048
    C    -1.2375    -0.7081    -0.024
    H    2.4881    2.3843000000000005    0.004
    H    4.6368    1.1623999999999999    0.038000000000000006
    H    4.6093    -1.2457    0.048
    H    2.4675    -2.4094    -0.012
    H    0.0    -2.4516    -0.032
    H    -2.4675    -2.5174    0.02
    H    -4.6093    -1.2857    0.05600000000000001
    H    -4.6368    1.2064    0.066
    H    -2.4881    2.5003    0.004
    H    0.0    2.0665    -0.8896000000000001
    H    0.0    2.0665    0.8296

