%NProcShared=16
%mem = 64GB
#n M062X/6-311++G(d,p) TD(NStates=1) EmpiricalDispersion=GD3 SP
 
 SP_4

1 1
    C    2.4927    1.2851    0.008
    C    3.7015    0.6206999999999999    0.052000000000000005
    C    3.6839    -0.7031    0.036000000000000004
    C    2.4632    -1.3109    -0.008
    C    -2.4632    -1.4069    0.024
    C    -3.6839    -0.7431    0.1
    C    -3.7015    0.6687    0.084
    C    -2.4927    1.3891    0.008
    C    0.0    1.4461    -0.06
    C    0.0    -1.3625    -0.06
    C    1.2621    0.6917    -0.030000000000000006
    C    1.2375    -0.6960999999999999    -0.054000000000000006
    C    -1.2621    0.7157    -0.07400000000000001
    C    -1.2375    -0.7121    -0.05
    H    2.4881    2.3263000000000003    0.008
    H    4.6368    1.1403999999999999    0.09000000000000001
    H    4.6093    -1.2257    0.1
    H    2.4675    -2.3554    -0.008
    H    0.0    -2.4516    -0.064
    H    -2.4675    -2.5714    0.024
    H    -4.6093    -1.3057    0.10800000000000001
    H    -4.6368    1.2284    0.11800000000000001
    H    -2.4881    2.5583000000000005    0.008
    H    0.0    2.0665    -0.9196
    H    0.0    2.0665    0.7996000000000001

