%NProcShared=16
%mem = 64GB
#n M062X/6-311++G(d,p) TD(NStates=1) EmpiricalDispersion=GD3 SP
 
 SP_3

1 1
    C    2.4927    1.2501    0.006
    C    3.7015    0.5727    0.011000000000000003
    C    3.6839    -0.7351    -0.028999999999999998
    C    2.4632    -1.2629    -0.034
    C    -2.4632    -1.3349    0.046
    C    -3.6839    -0.7651    0.131
    C    -3.7015    0.6087    0.091
    C    -2.4927    1.3280999999999998    0.006
    C    0.0    1.4221    -0.045
    C    0.0    -1.2755    -0.045
    C    1.2621    0.7217    0.016000000000000007
    C    1.2375    -0.6710999999999999    -0.044
    C    -1.2621    0.7397    -0.094
    C    -1.2375    -0.6830999999999999    -0.034
    H    2.4881    2.3403    0.006
    H    4.6368    1.0974    0.043
    H    4.6093    -1.2387    0.068
    H    2.4675    -2.3554    -0.034
    H    0.0    -2.3766    -0.048
    H    -2.4675    -2.5174    0.046
    H    -4.6093    -1.2987    0.088
    H    -4.6368    1.1633999999999998    0.113
    H    -2.4881    2.5143000000000004    0.006
    H    0.0    1.9345    -0.9046000000000001
    H    0.0    1.9345    0.8146

