%NProcShared=16
%mem = 64GB
#n M062X/6-311++G(d,p) TD(NStates=1) EmpiricalDispersion=GD3 SP
 
 SP_4

1 1
    C    2.4927    1.2370999999999999    0.008
    C    3.7015    0.5667    0.028000000000000004
    C    3.6839    -0.7301    -0.011999999999999997
    C    2.4632    -1.2509    -0.032
    C    -2.4632    -1.3469    0.048
    C    -3.6839    -0.7701    0.14800000000000002
    C    -3.7015    0.6147    0.10800000000000001
    C    -2.4927    1.3411    0.008
    C    0.0    1.4221    -0.06
    C    0.0    -1.2755    -0.06
    C    1.2621    0.7187    0.0030000000000000027
    C    1.2375    -0.6690999999999999    -0.057
    C    -1.2621    0.7427    -0.10700000000000001
    C    -1.2375    -0.6850999999999999    -0.04700000000000001
    H    2.4881    2.3113    0.008
    H    4.6368    1.0863999999999998    0.069
    H    4.6093    -1.2287    0.09400000000000001
    H    2.4675    -2.3284    -0.032
    H    0.0    -2.3766    -0.064
    H    -2.4675    -2.5444    0.048
    H    -4.6093    -1.3087    0.114
    H    -4.6368    1.1743999999999999    0.139
    H    -2.4881    2.5433000000000003    0.008
    H    0.0    1.9345    -0.9196
    H    0.0    1.9345    0.7996000000000001

