%NProcShared=16
%mem = 64GB
#n M062X/6-311++G(d,p) TD(NStates=1) EmpiricalDispersion=GD3 SP
 
 SP_5

1 1
    C    2.4927    1.2401    0.01
    C    3.7015    0.5787    0.053000000000000005
    C    3.6839    -0.7161    0.021000000000000005
    C    2.4632    -1.2589    -0.022
    C    -2.4632    -1.3789    0.042
    C    -3.6839    -0.7661    0.14900000000000002
    C    -3.7015    0.6387    0.117
    C    -2.4927    1.3700999999999999    0.01
    C    0.0    1.4301    -0.075
    C    0.0    -1.3045    -0.075
    C    1.2621    0.7067    -0.021000000000000005
    C    1.2375    -0.6760999999999999    -0.069
    C    -1.2621    0.7367    -0.109
    C    -1.2375    -0.6960999999999999    -0.061
    H    2.4881    2.2873    0.01
    H    4.6368    1.0934    0.10200000000000001
    H    4.6093    -1.2177    0.122
    H    2.4675    -2.3104    -0.022
    H    0.0    -2.4015999999999997    -0.08
    H    -2.4675    -2.5803999999999996    0.042
    H    -4.6093    -1.3177    0.138
    H    -4.6368    1.2033999999999998    0.158
    H    -2.4881    2.5773    0.01
    H    0.0    1.9785000000000001    -0.9346
    H    0.0    1.9785000000000001    0.7846000000000001

