%NProcShared=16
%mem = 64GB
#n M062X/6-311++G(d,p) TD(NStates=1) EmpiricalDispersion=GD3 SP
 
 SP_1

1 1
    C    2.4927    1.2761    0.002
    C    3.7015    0.5847    -0.023
    C    3.6839    -0.7451    -0.063
    C    2.4632    -1.2869    -0.038
    C    -2.4632    -1.3109    0.042
    C    -3.6839    -0.7551    0.097
    C    -3.7015    0.5967    0.057
    C    -2.4927    1.3020999999999998    0.002
    C    0.0    1.4221    -0.015
    C    0.0    -1.2755    -0.015
    C    1.2621    0.7277    0.04200000000000001
    C    1.2375    -0.6750999999999999    -0.018000000000000002
    C    -1.2621    0.7337    -0.068
    C    -1.2375    -0.6790999999999999    -0.008
    H    2.4881    2.3983000000000003    0.002
    H    4.6368    1.1194    -0.009000000000000001
    H    4.6093    -1.2587    0.016
    H    2.4675    -2.4093999999999998    -0.038
    H    0.0    -2.3766    -0.016
    H    -2.4675    -2.4634    0.042
    H    -4.6093    -1.2787    0.036000000000000004
    H    -4.6368    1.1413999999999997    0.061000000000000006
    H    -2.4881    2.4563    0.002
    H    0.0    1.9345    -0.8746
    H    0.0    1.9345    0.8446

