%NProcShared=16
%mem = 64GB
#n M062X/6-311++G(d,p) TD(NStates=1) EmpiricalDispersion=GD3 SP
 
 SP_4

1 1
    C    2.4927    1.3011    0.008
    C    3.7015    0.6386999999999999    0.060000000000000005
    C    3.6839    -0.6940999999999999    0.052000000000000005
    C    2.4632    -1.3309    0.0
    C    -2.4632    -1.4269    0.016
    C    -3.6839    -0.7341    0.084
    C    -3.7015    0.6867    0.07600000000000001
    C    -2.4927    1.4051    0.008
    C    0.0    1.4541    -0.06
    C    0.0    -1.3915000000000002    -0.06
    C    1.2621    0.6827    -0.04100000000000001
    C    1.2375    -0.7051    -0.053000000000000005
    C    -1.2621    0.7067    -0.063
    C    -1.2375    -0.7211    -0.051000000000000004
    H    2.4881    2.3313    0.008
    H    4.6368    1.1583999999999999    0.097
    H    4.6093    -1.2247    0.10200000000000001
    H    2.4675    -2.3644    0.0
    H    0.0    -2.4766    -0.064
    H    -2.4675    -2.5804    0.016
    H    -4.6093    -1.3047    0.10600000000000001
    H    -4.6368    1.2464    0.11100000000000002
    H    -2.4881    2.5633000000000004    0.008
    H    0.0    2.1105    -0.9196
    H    0.0    2.1105    0.7996000000000001

