%NProcShared=16
%mem = 64GB
#n M062X/6-311++G(d,p) TD(NStates=1) EmpiricalDispersion=GD3 SP
 
 SP_2

1 1
    C    0.0    2.508655    1.362431
    C    0.0    3.689508    0.669989
    C    -0.0    3.679861    -0.71583
    C    -0.0    2.467156    -1.413538
    C    -0.0    -2.459156    -1.401538
    C    -0.0    -3.687861    -0.71183
    C    0.0    -3.713508    0.673989
    C    0.0    -2.476655    1.358431
    C    0.0    -0.016    1.453369
    C    0.0    -0.032    -1.429189
    C    0.0    1.272055    0.647065
    C    -0.0    1.255471    -0.694804
    C    -0.0    -1.252055    0.707065
    C    0.0    -1.219471    -0.766804
    H    0.0    2.4260710000000003    2.443647
    H    0.0    4.604753    1.241689
    H    -0.0    4.581262000000001    -1.312349
    H    0.0    2.53755    -2.494059
    H    0.0    0.03    -2.510266
    H    -0.0    -2.3975500000000003    -2.486059
    H    0.0    -4.637262    -1.232349
    H    -0.0    -4.668753    1.181689
    H    -0.0    -2.550071    2.443647
    H    -0.859585    -0.052000000000000005    2.145787
    H    0.859585    -0.052000000000000005    2.145787

