%NProcShared=16
%mem = 64GB
#n M062X/6-311++G(d,p) TD(NStates=1) EmpiricalDispersion=GD3 SP
 
 SP_-4

1 1
    C    -0.0    2.460655    1.356431
    C    -0.0    3.725508    0.675989
    C    0.0    3.691861    -0.70983
    C    0.0    2.455156    -1.395538
    C    0.0    -2.471156    -1.419538
    C    0.0    -3.675861    -0.71783
    C    -0.0    -3.677508    0.6679889999999999
    C    -0.0    -2.524655    1.364431
    C    -0.0    0.032    1.453369
    C    0.0    0.064    -1.429189
    C    -0.0    1.242055    0.7370650000000001
    C    0.0    1.201471    -0.802804
    C    0.0    -1.282055    0.617065
    C    -0.0    -1.273471    -0.6588040000000001
    H    -0.0    2.6120710000000003    2.443647
    H    -0.0    4.700753    1.151689
    H    0.0    4.665262    -1.1923489999999999
    H    -0.0    2.32755    -2.482059
    H    0.0    -0.06    -2.510266
    H    0.0    -2.6075500000000003    -2.498059
    H    -0.0    -4.553262    -1.352349
    H    0.0    -4.572753    1.271689
    H    0.0    -2.364071    2.443647
    H    -0.859585    0.10400000000000001    2.145787
    H    0.859585    0.10400000000000001    2.145787

