%NProcShared=16
%mem = 64GB
#n M062X/6-311++G(d,p) TD(NStates=1) EmpiricalDispersion=GD3 SP
 
 SP_0

1 1
    C    0.0    2.492655    1.360431
    C    0.0    3.701508    0.671989
    C    -0.0    3.683861    -0.71383
    C    -0.0    2.463156    -1.407538
    C    -0.0    -2.463156    -1.407538
    C    -0.0    -3.683861    -0.71383
    C    0.0    -3.701508    0.671989
    C    0.0    -2.492655    1.360431
    C    0.0    0.0    1.453369
    C    0.0    -0.0    -1.429189
    C    0.0    1.262055    0.677065
    C    -0.0    1.237471    -0.730804
    C    -0.0    -1.262055    0.677065
    C    0.0    -1.237471    -0.730804
    H    0.0    2.488071    2.443647
    H    0.0    4.636753    1.211689
    H    -0.0    4.609262    -1.272349
    H    0.0    2.46755    -2.490059
    H    0.0    0.0    -2.510266
    H    -0.0    -2.46755    -2.490059
    H    0.0    -4.609262    -1.272349
    H    -0.0    -4.636753    1.211689
    H    -0.0    -2.488071    2.443647
    H    -0.859585    0.0    2.145787
    H    0.859585    -0.0    2.145787

