%NProcShared=16
%mem = 64GB
#n M062X/6-311++G(d,p) TD(NStates=1) EmpiricalDispersion=GD3 SP
 
 SP_5

1 1
    C    0.0    2.532655    1.3654309999999998
    C    0.0    3.671508    0.6669889999999999
    C    -0.0    3.673861    -0.71883
    C    -0.0    2.473156    -1.4225379999999999
    C    -0.0    -2.4531560000000003    -1.392538
    C    -0.0    -3.6938609999999996    -0.70883
    C    0.0    -3.731508    0.676989
    C    0.0    -2.452655    1.355431
    C    0.0    -0.04    1.453369
    C    0.0    -0.08    -1.429189
    C    0.0    1.2870549999999998    0.6020650000000001
    C    -0.0    1.282471    -0.640804
    C    -0.0    -1.237055    0.752065
    C    0.0    -1.192471    -0.820804
    H    0.0    2.3330710000000003    2.443647
    H    0.0    4.556753    1.286689
    H    -0.0    4.539262    -1.372349
    H    0.0    2.64255    -2.500059
    H    0.0    0.075    -2.510266
    H    -0.0    -2.2925500000000003    -2.4800590000000002
    H    0.0    -4.6792620000000005    -1.1723489999999999
    H    -0.0    -4.716753    1.136689
    H    -0.0    -2.643071    2.443647
    H    -0.859585    -0.13    2.145787
    H    0.859585    -0.13    2.145787

