%NProcShared=16
%mem = 64GB
#n M062X/6-311++G(d,p) TD(NStates=1) EmpiricalDispersion=GD3 SP
 
 SP_-3

1 1
    C    -0.0    2.468655    1.357431
    C    -0.0    3.719508    0.674989
    C    0.0    3.6898609999999996    -0.71083
    C    0.0    2.4571560000000003    -1.398538
    C    0.0    -2.469156    -1.4165379999999999
    C    0.0    -3.677861    -0.71683
    C    -0.0    -3.6835080000000002    0.668989
    C    -0.0    -2.516655    1.3634309999999998
    C    -0.0    0.024    1.453369
    C    0.0    0.048    -1.429189
    C    -0.0    1.247055    0.7220650000000001
    C    0.0    1.210471    -0.7848040000000001
    C    0.0    -1.2770549999999998    0.632065
    C    -0.0    -1.264471    -0.676804
    H    -0.0    2.581071    2.443647
    H    -0.0    4.684753    1.166689
    H    0.0    4.651262    -1.212349
    H    -0.0    2.36255    -2.4840590000000002
    H    0.0    -0.045    -2.510266
    H    0.0    -2.57255    -2.496059
    H    -0.0    -4.567262    -1.332349
    H    0.0    -4.588753    1.256689
    H    0.0    -2.395071    2.443647
    H    -0.859585    0.078    2.145787
    H    0.859585    0.078    2.145787

