%NProcShared=48
%mem = 190GB
#n M062X/6-311++G(d,p) TD(NStates=1) EmpiricalDispersion=GD3 SP
 
 SP_-125

1 1
    C    2.4879050000000005    1.361931    -0.0
    C    3.6991329999999993    0.6728639999999999    -0.0
    C    3.6823609999999998    -0.7113299999999999    -0.0
    C    2.462906    -1.4070380000000005    -0.0
    C    -2.4629060000000003    -1.4070380000000002    -0.0
    C    -3.6823609999999998    -0.7113299999999998    -0.0
    C    -3.6991329999999993    0.6728639999999999    -0.0
    C    -2.4879050000000005    1.361931    -0.0
    C    0.00012500000000000185    1.4423689999999998    -0.0
    C    0.0    -1.4286890000000003    0.0
    C    1.26168    0.67694    -0.0
    C    1.2384709999999999    -0.7315539999999999    -0.0
    C    -1.26168    0.6769399999999999    -0.0
    C    -1.2384709999999999    -0.7315539999999999    -0.0
    H    2.482571000000001    2.445272    -0.0
    H    4.633877999999999    1.2135639999999999    -0.0
    H    4.608512000000001    -1.269224    -0.0
    H    2.4682999999999997    -2.489683999999999    -0.0
    H    0.0    -2.510016    0.0
    H    -2.4682999999999997    -2.489683999999999    -0.0
    H    -4.608512000000001    -1.269224    -0.0
    H    -4.633877999999999    1.2135639999999999    -0.0
    H    -2.482571000000001    2.4452719999999997    -0.0
    H    0.0    2.1432870000000004    -0.856835
    H    0.0    2.1432870000000004    0.856835

