%NProcShared=48
%mem = 190GB
#n M062X/6-311++G(d,p) TD(NStates=1) EmpiricalDispersion=GD3 SP
 
 SP_150

1 1
    C    2.4788550000000003    1.360131    0.0
    C    3.6826080000000005    0.662564    0.0
    C    3.679161    -0.7310800000000001    0.0
    C    2.482831    -1.4192629999999995    0.0
    C    -2.4438310000000003    -1.3965129999999997    0.0
    C    -3.690661    -0.70008    0.0
    C    -3.7237330000000006    0.680189    0.0
    C    -2.5131050000000004    1.358631    0.0
    C    -0.011025    1.4610689999999997    0.0
    C    0.0305    -1.4295390000000001    0.0
    C    1.26688    0.6867150000000001    0.0
    C    1.249271    -0.731779    0.0
    C    -1.257755    0.6675900000000001    0.0
    C    -1.224271    -0.7287790000000002    0.0
    H    2.4866709999999994    2.443072    0.0
    H    4.617953    1.203189    0.0
    H    4.613411999999999    -1.273974    0.0
    H    2.4761500000000005    -2.5013840000000007    0.0
    H    0.028125000000000004    -2.510441    0.0
    H    -2.457900000000001    -2.4792590000000008    0.0
    H    -4.606161999999999    -1.275099    0.0
    H    -4.659578000000001    1.217564    0.0
    H    -2.4971709999999994    2.441947    0.0
    H    -0.04    2.1475369999999994    -0.86151
    H    -0.04    2.1475369999999994    0.86151

