%NProcShared=48
%mem = 190GB
#n M062X/6-311++G(d,p) TD(NStates=1) EmpiricalDispersion=GD3 SP
 
 SP_75

1 1
    C    2.487705    1.360131    0.0
    C    3.694233    0.668114    0.0
    C    3.682161    -0.7210300000000001    0.0
    C    2.471056    -1.4122879999999998    0.0
    C    -2.455456    -1.4031879999999997    0.0
    C    -3.6867609999999997    -0.7086300000000001    0.0
    C    -3.7106830000000004    0.675164    0.0
    C    -2.501405    1.3595309999999998    0.0
    C    -0.004425    1.4577689999999999    0.0
    C    0.0122    -1.429389    0.0
    C    1.26403    0.6809400000000001    0.0
    C    1.2420710000000001    -0.731104    0.0
    C    -1.2603799999999998    0.6732900000000002    0.0
    C    -1.232071    -0.7299040000000001    0.0
    H    2.488171    2.4432219999999996    0.0
    H    4.6295779999999995    1.208064    0.0
    H    4.611012    -1.273374    0.0
    H    2.4709000000000003    -2.4946340000000005    0.0
    H    0.011250000000000001    -2.5103660000000003    0.0
    H    -2.4636000000000005    -2.485784    0.0
    H    -4.608112    -1.2738239999999998    0.0
    H    -4.646228    1.2138140000000002    0.0
    H    -2.492371    2.4427719999999997    0.0
    H    -0.016    2.146787    -0.860685
    H    -0.016    2.146787    0.860685

