%NProcShared=48
%mem = 190GB
#n M062X/6-311++G(d,p) TD(NStates=1) EmpiricalDispersion=GD3 SP
 
 SP_50

1 1
    C    2.498455    1.3595309999999998    0.0
    C    3.706808    0.673314    0.0
    C    3.6857609999999994    -0.7119800000000001    0.0
    C    2.459381    -1.405513    0.0
    C    -2.467181    -1.4100629999999998    0.0
    C    -3.6834609999999994    -0.71818    0.0
    C    -3.698583    0.669789    0.0
    C    -2.491605    1.3598309999999998    0.0
    C    0.0021249999999999993    1.458869    0.0
    C    -0.006100000000000001    -1.429439    0.0
    C    1.2613299999999998    0.6752150000000001    0.0
    C    1.234471    -0.7301290000000001    0.0
    C    -1.2631549999999998    0.6790400000000001    0.0
    C    -1.239471    -0.730729    0.0
    H    2.491871    2.442722    0.0
    H    4.642352999999999    1.2121890000000002    0.0
    H    4.608912    -1.2740239999999998    0.0
    H    2.4653500000000004    -2.4880340000000003    0.0
    H    -0.0056250000000000015    -2.5103910000000007    0.0
    H    -2.4690000000000003    -2.492459    0.0
    H    -4.610362    -1.273799    0.0
    H    -4.634027999999999    1.2093140000000002    0.0
    H    -2.489771    2.4429469999999998    0.0
    H    0.008    2.147037    -0.8609600000000001
    H    0.008    2.147037    0.8609600000000001

