%NProcShared=48
%mem = 190GB
#n M062X/6-311++G(d,p) TD(NStates=1) EmpiricalDispersion=GD3 SP
 
 SP_100

1 1
    C    2.4691549999999998    1.361331    0.0
    C    3.672958    0.6595639999999999    0.0
    C    3.675961    -0.73578    0.0
    C    2.490481    -1.4235129999999998    0.0
    C    -2.435881    -1.3916629999999999    0.0
    C    -3.692061    -0.69238    0.0
    C    -3.7305330000000003    0.6842389999999999    0.0
    C    -2.517105    1.3592309999999999    0.0
    C    -0.015325    1.454469    0.0
    C    0.0427    -1.429239    0.0
    C    1.26848    0.690465    0.0
    C    1.254871    -0.732829    0.0
    C    -1.2557049999999998    0.6636900000000001    0.0
    C    -1.219871    -0.7286290000000001    0.0
    H    2.481271    2.444272    0.0
    H    4.607902999999999    1.201439    0.0
    H    4.614412    -1.271874    0.0
    H    2.48025    -2.5055840000000003    0.0
    H    0.039375    -2.510291    0.0
    H    -2.4547000000000003    -2.474609    0.0
    H    -4.604262    -1.273449    0.0
    H    -4.666178    1.221564    0.0
    H    -2.495971    2.442697    0.0
    H    -0.056    2.1460369999999998    -0.8598600000000001
    H    -0.056    2.1460369999999998    0.8598600000000001

