%NProcShared=48
%mem = 190GB
#n M062X/6-311++G(d,p) TD(NStates=1) EmpiricalDispersion=GD3 SP
 
 SP_0

1 1
    C    2.469255    1.362231    0.0
    C    3.6754079999999996    0.6619389999999998    0.0
    C    3.676061    -0.7309299999999999    0.0
    C    2.4864059999999997    -1.4208880000000002    0.0
    C    -2.4396060000000004    -1.3935880000000003    0.0
    C    -3.6898609999999996    -0.6937299999999998    0.0
    C    -3.7247579999999996    0.6830889999999998    0.0
    C    -2.510355    1.360431    0.0
    C    -0.013049999999999999    1.446769    0.0
    C    0.0366    -1.428889    0.0
    C    1.267305    0.6884649999999999    0.0
    C    1.2530709999999998    -0.7330539999999999    0.0
    C    -1.2563549999999999    0.665515    0.0
    C    -1.223071    -0.729454    0.0
    H    2.4784710000000008    2.445297    0.0
    H    4.610052999999999    1.204189    0.0
    H    4.613162000000001    -1.269799    0.0
    H    2.4789499999999993    -2.5031089999999994    0.0
    H    0.03375    -2.510116    0.0
    H    -2.4570499999999997    -2.4765589999999995    0.0
    H    -4.604462000000001    -1.271149    0.0
    H    -4.660003    1.221439    0.0
    H    -2.4910710000000007    2.4439469999999996    0.0
    H    -0.048    2.1442870000000003    -0.8579350000000001
    H    -0.048    2.1442870000000003    0.8579350000000001

