%NProcShared=48
%mem = 190GB
#n M062X/6-311++G(d,p) TD(NStates=1) EmpiricalDispersion=GD3 SP
 
 SP_50

1 1
    C    2.502355    1.3592309999999999    0.0
    C    3.711158    0.674989    0.0
    C    3.6870609999999995    -0.70913    0.0
    C    2.455506    -1.4032879999999999    0.0
    C    -2.471106    -1.4123879999999998    0.0
    C    -3.6824609999999995    -0.72153    0.0
    C    -3.6947080000000003    0.667939    0.0
    C    -2.488655    1.3598309999999998    0.0
    C    0.004299999999999999    1.4599689999999999    0.0
    C    -0.012199999999999999    -1.429489    0.0
    C    1.2604549999999999    0.6733150000000001    0.0
    C    1.2318710000000002    -0.7297540000000001    0.0
    C    -1.2641049999999998    0.680965    0.0
    C    -1.241871    -0.730954    0.0
    H    2.493471    2.4424469999999996    0.0
    H    4.646802999999999    1.2134390000000002    0.0
    H    4.608262    -1.274449    0.0
    H    2.4634500000000004    -2.4858590000000005    0.0
    H    -0.01125    -2.5104160000000006    0.0
    H    -2.4707500000000002    -2.4947090000000003    0.0
    H    -4.611162    -1.2739989999999999    0.0
    H    -4.630152999999999    1.2076890000000002    0.0
    H    -2.489271    2.442897    0.0
    H    0.016    2.147287    -0.8612350000000001
    H    0.016    2.147287    0.8612350000000001

