%NProcShared=48
%mem = 190GB
#n M062X/6-311++G(d,p) TD(NStates=1) EmpiricalDispersion=GD3 SP
 
 SP_-150

1 1
    C    2.486955    1.362231    -0.0
    C    3.698657999999999    0.6730389999999997    -0.0
    C    3.682061    -0.7108299999999999    -0.0
    C    2.4628560000000004    -1.4069380000000005    -0.0
    C    -2.462856    -1.4069380000000002    -0.0
    C    -3.682061    -0.7108299999999997    -0.0
    C    -3.698657999999999    0.6730389999999997    -0.0
    C    -2.486955    1.362231    -0.0
    C    0.00015000000000000083    1.440169    -0.0
    C    0.0    -1.428589    0.0
    C    1.2616049999999999    0.6769149999999999    -0.0
    C    1.238671    -0.7317039999999999    -0.0
    C    -1.2616049999999999    0.6769149999999998    -0.0
    C    -1.2386709999999996    -0.7317039999999999    -0.0
    H    2.481471000000001    2.445597    -0.0
    H    4.633303    1.2139389999999999    -0.0
    H    4.608362000000001    -1.268599    -0.0
    H    2.468449999999999    -2.489608999999999    -0.0
    H    0.0    -2.5099659999999995    0.0
    H    -2.468449999999999    -2.489608999999999    -0.0
    H    -4.608362000000001    -1.268599    -0.0
    H    -4.633303    1.2139389999999999    -0.0
    H    -2.481471000000001    2.4455970000000002    -0.0
    H    0.0    2.142787    -0.8562850000000002
    H    0.0    2.142787    0.8562850000000002

