%NProcShared=48
%mem = 190GB
#n M062X/6-311++G(d,p) TD(NStates=1) EmpiricalDispersion=GD3 SP
 
 SP_150

1 1
    C    2.482755    1.3598309999999998    0.0
    C    3.6869580000000006    0.664239    0.0
    C    3.680461    -0.7282300000000002    0.0
    C    2.478956    -1.4170379999999996    0.0
    C    -2.4477560000000005    -1.3988379999999996    0.0
    C    -3.689661    -0.7034300000000001    0.0
    C    -3.7198580000000003    0.678339    0.0
    C    -2.510155    1.358631    0.0
    C    -0.00885    1.4621689999999998    0.0
    C    0.0244    -1.429589    0.0
    C    1.2660049999999998    0.6848150000000002    0.0
    C    1.246671    -0.7314039999999999    0.0
    C    -1.258705    0.6695150000000002    0.0
    C    -1.226671    -0.7290040000000002    0.0
    H    2.4882709999999992    2.442797    0.0
    H    4.622403    1.2044390000000003    0.0
    H    4.612762    -1.2743989999999998    0.0
    H    2.4742500000000005    -2.4992090000000005    0.0
    H    0.022500000000000003    -2.510466    0.0
    H    -2.459650000000001    -2.481509000000001    0.0
    H    -4.606961999999999    -1.275299    0.0
    H    -4.655703000000001    1.215939    0.0
    H    -2.496670999999999    2.441897    0.0
    H    -0.032    2.1477869999999992    -0.861785
    H    -0.032    2.1477869999999992    0.861785

