%NProcShared=48
%mem = 190GB
#n M062X/6-311++G(d,p) TD(NStates=1) EmpiricalDispersion=GD3 SP
 
 SP_150

1 1
    C    2.486655    1.3595309999999998    0.0
    C    3.6913080000000007    0.6659140000000001    0.0
    C    3.681761    -0.7253800000000001    0.0
    C    2.475081    -1.4148129999999997    0.0
    C    -2.4516810000000007    -1.4011629999999997    0.0
    C    -3.6886609999999997    -0.7067800000000002    0.0
    C    -3.7159830000000005    0.6764890000000001    0.0
    C    -2.507205    1.358631    0.0
    C    -0.006675    1.463269    0.0
    C    0.0183    -1.4296389999999999    0.0
    C    1.2651299999999999    0.6829150000000002    0.0
    C    1.244071    -0.731029    0.0
    C    -1.259655    0.6714400000000003    0.0
    C    -1.2290710000000002    -0.7292290000000001    0.0
    H    2.4898709999999995    2.4425220000000003    0.0
    H    4.626853    1.2056890000000002    0.0
    H    4.612112    -1.2748239999999997    0.0
    H    2.472350000000001    -2.4970340000000006    0.0
    H    0.016875    -2.5104910000000005    0.0
    H    -2.461400000000001    -2.483759000000001    0.0
    H    -4.607761999999999    -1.275499    0.0
    H    -4.651828    1.2143140000000001    0.0
    H    -2.4961709999999995    2.4418469999999997    0.0
    H    -0.024    2.1480369999999995    -0.8620599999999999
    H    -0.024    2.1480369999999995    0.8620599999999999

