%NProcShared=48
%mem = 190GB
#n M062X/6-311++G(d,p) TD(NStates=1) EmpiricalDispersion=GD3 SP
 
 SP_-125

1 1
    C    2.526905    1.358931    0.0
    C    3.742633    0.689614    0.0
    C    3.6953609999999997    -0.6828299999999999    0.0
    C    2.4241560000000004    -1.384788    0.0
    C    -2.5021559999999994    -1.4302879999999998    0.0
    C    -3.672361    -0.7448300000000001    0.0
    C    -3.660383    0.654364    0.0
    C    -2.458405    1.361931    0.0
    C    0.021875    1.453369    0.0
    C    -0.061000000000000006    -1.429189    0.0
    C    1.2529299999999999    0.6579400000000001    0.0
    C    1.212471    -0.727804    0.0
    C    -1.27118    0.6961900000000001    0.0
    C    -1.262471    -0.733804    0.0
    H    2.498571    2.4425219999999994    0.0
    H    4.678378    1.226064    0.0
    H    4.602012    -1.2734740000000002    0.0
    H    2.4493000000000005    -2.467934    0.0
    H    -0.05625    -2.510266    0.0
    H    -2.4858    -2.512184    0.0
    H    -4.616512    -1.2712239999999997    0.0
    H    -4.595127999999999    1.197314    0.0
    H    -2.477571    2.444772    0.0
    H    0.08    2.145787    -0.859585
    H    0.08    2.145787    0.859585

