%NProcShared=48
%mem = 190GB
#n M062X/6-311++G(d,p) TD(NStates=1) EmpiricalDispersion=GD3 SP
 
 SP_-50

1 1
    C    2.5024550000000003    1.360131    0.0
    C    3.7136080000000002    0.677364    0.0
    C    3.687161    -0.7042799999999999    0.0
    C    2.4514310000000004    -1.4006629999999998    0.0
    C    -2.474831    -1.414313    0.0
    C    -3.6802610000000002    -0.72288    0.0
    C    -3.688933    0.666789    0.0
    C    -2.4819050000000002    1.361031    0.0
    C    0.006575    1.4522689999999998    0.0
    C    -0.018299999999999997    -1.4291390000000002    0.0
    C    1.25928    0.671315    0.0
    C    1.230071    -0.7299789999999999    0.0
    C    -1.264755    0.68279    0.0
    C    -1.245071    -0.7317790000000001    0.0
    H    2.490671    2.443472    0.0
    H    4.648953000000001    1.216189    0.0
    H    4.607012    -1.2723740000000001    0.0
    H    2.4621500000000003    -2.483384    0.0
    H    -0.016875    -2.5102409999999997    0.0
    H    -2.4731    -2.496659    0.0
    H    -4.611362    -1.271699    0.0
    H    -4.623978    1.2075639999999999    0.0
    H    -2.484371    2.444147    0.0
    H    0.024    2.1455369999999996    -0.85931
    H    0.024    2.1455369999999996    0.85931

