%NProcShared=48
%mem = 190GB
#n M062X/6-311++G(d,p) TD(NStates=1) EmpiricalDispersion=GD3 SP
 
 SP_-100

1 1
    C    2.527855    1.358631    0.0
    C    3.7431080000000003    0.6894389999999999    0.0
    C    3.6956609999999994    -0.68333    0.0
    C    2.4242060000000007    -1.384888    0.0
    C    -2.5022059999999997    -1.4303879999999998    0.0
    C    -3.6726609999999997    -0.74533    0.0
    C    -3.660858    0.6541889999999999    0.0
    C    -2.459355    1.361631    0.0
    C    0.02185    1.455569    0.0
    C    -0.061    -1.429289    0.0
    C    1.253005    0.6579650000000001    0.0
    C    1.2122709999999999    -0.727654    0.0
    C    -1.271255    0.696215    0.0
    C    -1.2622710000000001    -0.733654    0.0
    H    2.499671    2.4421969999999997    0.0
    H    4.678953    1.225689    0.0
    H    4.602162    -1.274099    0.0
    H    2.4491500000000004    -2.4680090000000003    0.0
    H    -0.05625    -2.5103160000000004    0.0
    H    -2.4856499999999997    -2.5122590000000002    0.0
    H    -4.616662    -1.2718489999999998    0.0
    H    -4.5957029999999985    1.196939    0.0
    H    -2.4786710000000003    2.4444470000000003    0.0
    H    0.08    2.146287    -0.8601350000000001
    H    0.08    2.146287    0.8601350000000001

