%NProcShared=48
%mem = 190GB
#n M062X/6-311++G(d,p) TD(NStates=1) EmpiricalDispersion=GD3 SP
 
 SP_-125

1 1
    C    2.5230050000000004    1.3592309999999999    0.0
    C    3.738283    0.687939    0.0
    C    3.6940609999999996    -0.68568    0.0
    C    2.4280310000000003    -1.387013    0.0
    C    -2.4982309999999996    -1.4279629999999999    0.0
    C    -3.673361    -0.74148    0.0
    C    -3.664258    0.656214    0.0
    C    -2.461355    1.361931    0.0
    C    0.019700000000000002    1.4522689999999998    0.0
    C    -0.054900000000000004    -1.4291390000000002    0.0
    C    1.2538049999999998    0.6598400000000001    0.0
    C    1.215071    -0.728179    0.0
    C    -1.27023    0.694265    0.0
    C    -1.260071    -0.733579    0.0
    H    2.4969710000000003    2.4427969999999997    0.0
    H    4.673928    1.224814    0.0
    H    4.6026620000000005    -1.273049    0.0
    H    2.4512000000000005    -2.470109    0.0
    H    -0.050625    -2.510241    0.0
    H    -2.48405    -2.509934    0.0
    H    -4.615712    -1.2710239999999997    0.0
    H    -4.599002999999999    1.198939    0.0
    H    -2.4780710000000004    2.444822    0.0
    H    0.07200000000000001    2.145537    -0.85931
    H    0.07200000000000001    2.145537    0.85931

