%NProcShared=48
%mem = 190GB
#n M062X/6-311++G(d,p) TD(NStates=1) EmpiricalDispersion=GD3 SP
 
 SP_-75

1 1
    C    2.4898049999999996    1.361331    -0.0
    C    3.700083    0.6725139999999998    -0.0
    C    3.682961    -0.7123299999999998    -0.0
    C    2.4630060000000005    -1.407238    -0.0
    C    -2.463006    -1.4072380000000002    -0.0
    C    -3.682961    -0.7123299999999999    -0.0
    C    -3.700083    0.6725139999999998    -0.0
    C    -2.4898049999999996    1.361331    -0.0
    C    7.500000000000041e-05    1.4467690000000002    -0.0
    C    0.0    -1.4288889999999999    0.0
    C    1.26183    0.6769899999999999    -0.0
    C    1.238071    -0.731254    -0.0
    C    -1.26183    0.67699    -0.0
    C    -1.238071    -0.731254    -0.0
    H    2.4847710000000003    2.444622    -0.0
    H    4.635028    1.2128139999999998    -0.0
    H    4.608812    -1.270474    -0.0
    H    2.4679999999999995    -2.4898339999999997    -0.0
    H    0.0    -2.5101159999999996    0.0
    H    -2.4679999999999995    -2.4898339999999997    -0.0
    H    -4.608812    -1.270474    -0.0
    H    -4.635028    1.2128139999999998    -0.0
    H    -2.4847710000000003    2.4446220000000003    -0.0
    H    0.0    2.144287    -0.8579350000000001
    H    0.0    2.144287    0.8579350000000001

