%NProcShared=48
%mem = 190GB
#n M062X/6-311++G(d,p) TD(NStates=1) EmpiricalDispersion=GD3 SP
 
 SP_-100

1 1
    C    2.488855    1.361631    -0.0
    C    3.6996079999999996    0.6726889999999999    -0.0
    C    3.682661    -0.7118299999999999    -0.0
    C    2.462956    -1.4071380000000002    -0.0
    C    -2.462956    -1.4071380000000002    -0.0
    C    -3.682661    -0.7118299999999999    -0.0
    C    -3.6996079999999996    0.6726889999999999    -0.0
    C    -2.488855    1.361631    -0.0
    C    0.00010000000000000113    1.444569    -0.0
    C    0.0    -1.428789    0.0
    C    1.261755    0.6769649999999999    -0.0
    C    1.238271    -0.7314039999999999    -0.0
    C    -1.261755    0.6769649999999999    -0.0
    C    -1.238271    -0.7314039999999999    -0.0
    H    2.4836710000000006    2.444947    -0.0
    H    4.634453    1.2131889999999999    -0.0
    H    4.608662000000001    -1.269849    -0.0
    H    2.4681499999999996    -2.4897589999999994    -0.0
    H    0.0    -2.5100659999999997    0.0
    H    -2.4681499999999996    -2.4897589999999994    -0.0
    H    -4.608662000000001    -1.269849    -0.0
    H    -4.634453    1.2131889999999999    -0.0
    H    -2.4836710000000006    2.444947    -0.0
    H    0.0    2.143787    -0.8573850000000001
    H    0.0    2.143787    0.8573850000000001

