%NProcShared=48
%mem = 190GB
#n M062X/6-311++G(d,p) TD(NStates=1) EmpiricalDispersion=GD3 SP
 
 SP_-125

1 1
    C    2.5191050000000006    1.3595309999999998    0.0
    C    3.733933    0.686264    0.0
    C    3.6927609999999995    -0.68853    0.0
    C    2.431906    -1.3892380000000002    0.0
    C    -2.494306    -1.425638    0.0
    C    -3.6743609999999998    -0.73813    0.0
    C    -3.6681329999999996    0.658064    0.0
    C    -2.4643050000000004    1.361931    0.0
    C    0.017525    1.4511689999999997    0.0
    C    -0.0488    -1.4290890000000003    0.0
    C    1.2546799999999998    0.6617400000000001    0.0
    C    1.217671    -0.728554    0.0
    C    -1.26928    0.69234    0.0
    C    -1.257671    -0.733354    0.0
    H    2.4953710000000004    2.443072    0.0
    H    4.669478    1.223564    0.0
    H    4.603312000000001    -1.272624    0.0
    H    2.4531000000000005    -2.4722839999999997    0.0
    H    -0.045    -2.5102160000000002    0.0
    H    -2.4823    -2.507684    0.0
    H    -4.614912    -1.2708239999999997    0.0
    H    -4.602877999999999    1.200564    0.0
    H    -2.4785710000000005    2.4448719999999997    0.0
    H    0.064    2.145287    -0.859035
    H    0.064    2.145287    0.859035

