%NProcShared=48
%mem = 190GB
#n M062X/6-311++G(d,p) TD(NStates=1) EmpiricalDispersion=GD3 SP
 
 SP_-25

1 1
    C    2.4878050000000003    1.361031    -0.0
    C    3.6966829999999997    0.6704889999999999    -0.0
    C    3.6822609999999996    -0.71618    -0.0
    C    2.4669809999999996    -1.409663    -0.0
    C    -2.459181    -1.405113    -0.0
    C    -3.6845609999999995    -0.7099799999999999    -0.0
    C    -3.7049079999999996    0.6740139999999999    -0.0
    C    -2.4946550000000003    1.360731    -0.0
    C    -0.0021499999999999996    1.4500689999999998    -0.0
    C    0.0060999999999999995    -1.4290390000000002    0.0
    C    1.262855    0.6789400000000001    -0.0
    C    1.240271    -0.7313289999999999    -0.0
    C    -1.2610299999999999    0.675115    -0.0
    C    -1.235271    -0.730729    -0.0
    H    2.4853710000000007    2.444247    -0.0
    H    4.631727999999999    1.210814    -0.0
    H    4.609762    -1.271299    -0.0
    H    2.4696    -2.492159    -0.0
    H    0.005625    -2.510191    0.0
    H    -2.4659500000000003    -2.4877339999999997    -0.0
    H    -4.608312000000001    -1.2715239999999999    -0.0
    H    -4.640053    1.213689    -0.0
    H    -2.487471    2.4440219999999995    -0.0
    H    -0.008    2.1450370000000003    -0.85876
    H    -0.008    2.1450370000000003    0.85876

