%NProcShared=48
%mem = 190GB
#n M062X/6-311++G(d,p) TD(NStates=1) EmpiricalDispersion=GD3 SP
 
 SP_-150

1 1
    C    2.533755    1.358631    0.0
    C    3.750858    0.693139    0.0
    C    3.697660999999999    -0.6766299999999998    0.0
    C    2.4163560000000004    -1.380238    0.0
    C    -2.5099559999999994    -1.434838    0.0
    C    -3.6700609999999996    -0.75103    0.0
    C    -3.652158    0.650839    0.0
    C    -2.451555    1.362231    0.0
    C    0.02625    1.453369    0.0
    C    -0.0732    -1.429189    0.0
    C    1.251105    0.654115    0.0
    C    1.207471    -0.7272040000000002    0.0
    C    -1.273005    0.7000149999999999    0.0
    C    -1.267471    -0.7344039999999998    0.0
    H    2.5006710000000005    2.4422969999999995    0.0
    H    4.686703    1.228939    0.0
    H    4.600562    -1.2736990000000001    0.0
    H    2.4456500000000005    -2.463509    0.0
    H    -0.0675    -2.5102660000000006    0.0
    H    -2.4894499999999997    -2.516609    0.0
    H    -4.617962    -1.2709989999999998    0.0
    H    -4.586802999999998    1.194439    0.0
    H    -2.4754710000000006    2.444997    0.0
    H    0.096    2.1457870000000003    -0.859585
    H    0.096    2.1457870000000003    0.859585

