%NProcShared=48
%mem = 190GB
#n M062X/6-311++G(d,p) TD(NStates=1) EmpiricalDispersion=GD3 SP
 
 SP_-150

1 1
    C    2.525955    1.3592309999999999    0.0
    C    3.742158    0.6897889999999999    0.0
    C    3.6950609999999995    -0.6823299999999999    0.0
    C    2.4241060000000005    -1.3846880000000001    0.0
    C    -2.5021059999999995    -1.430188    0.0
    C    -3.672061    -0.7443299999999999    0.0
    C    -3.6599079999999997    0.6545389999999999    0.0
    C    -2.457455    1.362231    0.0
    C    0.0219    1.451169    0.0
    C    -0.061    -1.429089    0.0
    C    1.2528549999999998    0.657915    0.0
    C    1.212671    -0.7279540000000001    0.0
    C    -1.271105    0.6961649999999999    0.0
    C    -1.2626709999999999    -0.7339539999999999    0.0
    H    2.4974710000000004    2.4428469999999995    0.0
    H    4.677803    1.226439    0.0
    H    4.601862000000001    -1.2728490000000001    0.0
    H    2.44945    -2.467859    0.0
    H    -0.05625    -2.5102160000000002    0.0
    H    -2.4859499999999994    -2.5121089999999997    0.0
    H    -4.6163620000000005    -1.2705989999999998    0.0
    H    -4.5945529999999986    1.197689    0.0
    H    -2.4764710000000005    2.445097    0.0
    H    0.08    2.145287    -0.8590350000000001
    H    0.08    2.145287    0.8590350000000001

