%NProcShared=48
%mem = 190GB
#n M062X/6-311++G(d,p) TD(NStates=1) EmpiricalDispersion=GD3 SP
 
 SP_100

1 1
    C    2.4925550000000003    1.3595309999999998    0.0
    C    3.6990580000000004    0.669614    0.0
    C    3.6837609999999996    -0.7186800000000001    0.0
    C    2.467231    -1.4101629999999998    0.0
    C    -2.4594310000000004    -1.4056129999999998    0.0
    C    -3.6860609999999996    -0.71248    0.0
    C    -3.7072830000000003    0.673139    0.0
    C    -2.4994050000000003    1.3592309999999999    0.0
    C    -0.002275000000000001    1.4610689999999997    0.0
    C    0.006099999999999998    -1.4295390000000001    0.0
    C    1.2632299999999999    0.6790650000000001    0.0
    C    1.239271    -0.7305790000000001    0.0
    C    -1.2614049999999999    0.6752400000000001    0.0
    C    -1.2342710000000001    -0.729979    0.0
    H    2.490871    2.442622    0.0
    H    4.634602999999999    1.2089390000000002    0.0
    H    4.610512    -1.2744239999999998    0.0
    H    2.4688500000000007    -2.4925340000000005    0.0
    H    0.005624999999999998    -2.5104410000000006    0.0
    H    -2.4652000000000007    -2.4881090000000006    0.0
    H    -4.609062    -1.274649    0.0
    H    -4.6429279999999995    1.2118140000000002    0.0
    H    -2.492971    2.4423969999999997    0.0
    H    -0.008    2.147537    -0.86151
    H    -0.008    2.147537    0.86151

