%NProcShared=48
%mem = 190GB
#n M062X/6-311++G(d,p) TD(NStates=1) EmpiricalDispersion=GD3 SP
 
 SP_-50

1 1
    C    2.4868550000000003    1.361331    -0.0
    C    3.696208    0.6706639999999999    -0.0
    C    3.6819610000000003    -0.7156799999999999    -0.0
    C    2.466931    -1.409563    -0.0
    C    -2.459131    -1.405013    -0.0
    C    -3.6842610000000002    -0.7094799999999999    -0.0
    C    -3.704433    0.6741889999999999    -0.0
    C    -2.4937050000000003    1.361031    -0.0
    C    -0.0021249999999999993    1.4478689999999999    -0.0
    C    0.006100000000000001    -1.4289390000000002    0.0
    C    1.26278    0.6789149999999999    -0.0
    C    1.2404709999999999    -0.7314789999999999    -0.0
    C    -1.260955    0.67509    -0.0
    C    -1.235471    -0.7308790000000001    -0.0
    H    2.484271    2.444572    -0.0
    H    4.631153    1.2111889999999998    -0.0
    H    4.609612    -1.270674    -0.0
    H    2.46975    -2.4920839999999997    -0.0
    H    0.0056250000000000015    -2.5101409999999995    0.0
    H    -2.4661    -2.487659    -0.0
    H    -4.608162    -1.270899    -0.0
    H    -4.639478    1.2140639999999998    -0.0
    H    -2.486371    2.444347    -0.0
    H    -0.008    2.1445369999999997    -0.85821
    H    -0.008    2.1445369999999997    0.85821

