%NProcShared=48
%mem = 190GB
#n M062X/6-311++G(d,p) TD(NStates=1) EmpiricalDispersion=GD3 SP
 
 SP_25

1 1
    C    2.513105    1.358631    0.0
    C    3.7237330000000006    0.6801889999999999    0.0
    C    3.6906609999999995    -0.70008    0.0
    C    2.4438310000000003    -1.3965129999999997    0.0
    C    -2.482831    -1.419263    0.0
    C    -3.6791609999999997    -0.7310800000000001    0.0
    C    -3.682608    0.6625639999999999    0.0
    C    -2.478855    1.360131    0.0
    C    0.010849999999999999    1.461069    0.0
    C    -0.0305    -1.429539    0.0
    C    1.257755    0.6675900000000001    0.0
    C    1.2242709999999999    -0.7287790000000001    0.0
    C    -1.26688    0.6867150000000001    0.0
    C    -1.2492710000000002    -0.731779    0.0
    H    2.497171    2.441947    0.0
    H    4.659578    1.2175640000000003    0.0
    H    4.606161999999999    -1.275099    0.0
    H    2.4579000000000004    -2.4792590000000008    0.0
    H    -0.028125000000000004    -2.510441    0.0
    H    -2.4761500000000005    -2.5013840000000007    0.0
    H    -4.613411999999999    -1.273974    0.0
    H    -4.617953    1.203189    0.0
    H    -2.4866709999999994    2.443072    0.0
    H    0.04    2.147537    -0.86151
    H    0.04    2.147537    0.86151

