%NProcShared=48
%mem = 190GB
#n M062X/6-311++G(d,p) TD(NStates=1) EmpiricalDispersion=GD3 SP
 
 SP_100

1 1
    C    2.488655    1.3598309999999998    0.0
    C    3.6947080000000003    0.6679390000000001    0.0
    C    3.682461    -0.72153    0.0
    C    2.471106    -1.4123879999999998    0.0
    C    -2.455506    -1.4032879999999999    0.0
    C    -3.687061    -0.70913    0.0
    C    -3.711158    0.6749890000000001    0.0
    C    -2.502355    1.3592309999999999    0.0
    C    -0.004450000000000001    1.4599689999999999    0.0
    C    0.012199999999999999    -1.429489    0.0
    C    1.2641049999999998    0.680965    0.0
    C    1.2418710000000002    -0.7309540000000001    0.0
    C    -1.2604549999999999    0.6733150000000001    0.0
    C    -1.231871    -0.729754    0.0
    H    2.4892709999999996    2.442897    0.0
    H    4.630153    1.2076890000000002    0.0
    H    4.611162    -1.2739989999999999    0.0
    H    2.4707500000000007    -2.4947090000000003    0.0
    H    0.01125    -2.510416    0.0
    H    -2.463450000000001    -2.4858590000000005    0.0
    H    -4.608262    -1.274449    0.0
    H    -4.646803    1.2134390000000002    0.0
    H    -2.4934709999999995    2.4424469999999996    0.0
    H    -0.016    2.1472869999999995    -0.861235
    H    -0.016    2.1472869999999995    0.861235

