%NProcShared=48
%mem = 190GB
#n M062X/6-311++G(d,p) TD(NStates=1) EmpiricalDispersion=GD3 SP
 
 SP_-75

1 1
    C    2.509305    1.3598309999999998    0.0
    C    3.721833    0.6808889999999999    0.0
    C    3.6894609999999997    -0.6980799999999998    0.0
    C    2.4436310000000008    -1.396113    0.0
    C    -2.482631    -1.418863    0.0
    C    -3.677961    -0.72908    0.0
    C    -3.680708    0.6632639999999999    0.0
    C    -2.475055    1.361331    0.0
    C    0.01095    1.452269    0.0
    C    -0.0305    -1.429139    0.0
    C    1.2574549999999998    0.6674899999999999    0.0
    C    1.2250709999999998    -0.729379    0.0
    C    -1.26658    0.686615    0.0
    C    -1.2500710000000002    -0.7323789999999999    0.0
    H    2.4927710000000003    2.443247    0.0
    H    4.657278    1.219064    0.0
    H    4.605562000000001    -1.272599    0.0
    H    2.4585    -2.4789589999999997    0.0
    H    -0.028125    -2.5102409999999997    0.0
    H    -2.47675    -2.501084    0.0
    H    -4.612812    -1.271474    0.0
    H    -4.615653    1.204689    0.0
    H    -2.482271    2.4443720000000004    0.0
    H    0.04    2.145537    -0.85931
    H    0.04    2.145537    0.85931

