%NProcShared=48
%mem = 190GB
#n M062X/6-311++G(d,p) TD(NStates=1) EmpiricalDispersion=GD3 SP
 
 SP_25

1 1
    C    2.4780049999999996    1.361331    0.0
    C    3.684583    0.6651139999999999    0.0
    C    3.678961    -0.7257299999999999    0.0
    C    2.4787060000000003    -1.416538    0.0
    C    -2.4475060000000006    -1.398338    0.0
    C    -3.688161    -0.7009299999999998    0.0
    C    -3.717483    0.6792139999999999    0.0
    C    -2.5054049999999997    1.360131    0.0
    C    -0.008725    1.4511690000000002    0.0
    C    0.024399999999999998    -1.4290889999999998    0.0
    C    1.26563    0.6846899999999999    0.0
    C    1.247671    -0.732154    0.0
    C    -1.25833    0.6693899999999999    0.0
    C    -1.227671    -0.729754    0.0
    H    2.482771    2.4444220000000003    0.0
    H    4.619528    1.2063139999999999    0.0
    H    4.612012    -1.271274    0.0
    H    2.4749999999999996    -2.498834    0.0
    H    0.0225    -2.510216    0.0
    H    -2.4604    -2.481134    0.0
    H    -4.606212    -1.2721740000000001    0.0
    H    -4.652828    1.217814    0.0
    H    -2.491171    2.443522    0.0
    H    -0.032    2.1452869999999997    -0.8590350000000001
    H    -0.032    2.1452869999999997    0.8590350000000001

