%NProcShared=48
%mem = 190GB
#n M062X/6-311++G(d,p) TD(NStates=1) EmpiricalDispersion=GD3 SP
 
 SP_125

1 1
    C    2.489605    1.3595309999999998    0.0
    C    3.6951830000000006    0.667764    0.0
    C    3.6827609999999997    -0.7220300000000001    0.0
    C    2.471156    -1.4124879999999997    0.0
    C    -2.4555560000000005    -1.4033879999999999    0.0
    C    -3.6873609999999997    -0.70963    0.0
    C    -3.7116330000000004    0.674814    0.0
    C    -2.503305    1.358931    0.0
    C    -0.0044750000000000015    1.4621689999999998    0.0
    C    0.012200000000000003    -1.429589    0.0
    C    1.2641799999999999    0.6809900000000001    0.0
    C    1.241671    -0.7308040000000001    0.0
    C    -1.26053    0.67334    0.0
    C    -1.2316710000000002    -0.729604    0.0
    H    2.4903709999999997    2.442572    0.0
    H    4.6307279999999995    1.2073140000000002    0.0
    H    4.611312    -1.2746239999999998    0.0
    H    2.4706000000000006    -2.4947840000000006    0.0
    H    0.01125    -2.5104660000000005    0.0
    H    -2.4633000000000007    -2.4859340000000008    0.0
    H    -4.6084119999999995    -1.275074    0.0
    H    -4.647378    1.2130640000000001    0.0
    H    -2.4945709999999996    2.442122    0.0
    H    -0.016    2.1477869999999997    -0.861785
    H    -0.016    2.1477869999999997    0.861785

