%NProcShared=48
%mem = 190GB
#n M062X/6-311++G(d,p) TD(NStates=1) EmpiricalDispersion=GD3 SP
 
 SP_75

1 1
    C    2.4799050000000005    1.360731    0.0
    C    3.685533    0.664764    0.0
    C    3.6795609999999996    -0.7267300000000001    0.0
    C    2.4788059999999996    -1.416738    0.0
    C    -2.4476060000000004    -1.3985379999999998    0.0
    C    -3.6887609999999995    -0.7019299999999999    0.0
    C    -3.718433    0.678864    0.0
    C    -2.5073050000000006    1.3595309999999998    0.0
    C    -0.008775    1.4555689999999997    0.0
    C    0.024399999999999998    -1.4292890000000003    0.0
    C    1.26578    0.6847400000000001    0.0
    C    1.247271    -0.731854    0.0
    C    -1.2584799999999998    0.66944    0.0
    C    -1.227271    -0.729454    0.0
    H    2.4849710000000003    2.443772    0.0
    H    4.620677999999999    1.205564    0.0
    H    4.612312    -1.2725239999999998    0.0
    H    2.4747000000000003    -2.498984    0.0
    H    0.0225    -2.5103160000000004    0.0
    H    -2.4601000000000006    -2.481284    0.0
    H    -4.606512    -1.273424    0.0
    H    -4.6539779999999995    1.2170640000000001    0.0
    H    -2.4933710000000002    2.4428719999999995    0.0
    H    -0.032    2.146287    -0.860135
    H    -0.032    2.146287    0.860135

