%NProcShared=48
%mem = 190GB
#n M062X/6-311++G(d,p) TD(NStates=1) EmpiricalDispersion=GD3 SP
 
 SP_150

1 1
    C    2.467155    1.361031    0.0
    C    3.6695580000000003    0.6575390000000001    0.0
    C    3.675261    -0.73963    0.0
    C    2.4944559999999996    -1.4259379999999997    0.0
    C    -2.4320560000000007    -1.389538    0.0
    C    -3.6936609999999996    -0.69003    0.0
    C    -3.7353580000000006    0.6857390000000001    0.0
    C    -2.521955    1.358631    0.0
    C    -0.01755    1.4577689999999999    0.0
    C    0.048799999999999996    -1.429389    0.0
    C    1.269505    0.692415    0.0
    C    1.2570709999999998    -0.732904    0.0
    C    -1.254905    0.6618150000000002    0.0
    C    -1.2170710000000002    -0.7281040000000001    0.0
    H    2.481871    2.443897    0.0
    H    4.604602999999999    1.199439    0.0
    H    4.615361999999999    -1.2726989999999998    0.0
    H    2.4818500000000006    -2.5079090000000006    0.0
    H    0.045    -2.5103660000000003    0.0
    H    -2.452650000000001    -2.4725090000000005    0.0
    H    -4.603762    -1.274499    0.0
    H    -4.671203    1.222439    0.0
    H    -2.498671    2.4420969999999995    0.0
    H    -0.064    2.146787    -0.8606849999999999
    H    -0.064    2.146787    0.8606849999999999

