%NProcShared=48
%mem = 190GB
#n M062X/6-311++G(d,p) TD(NStates=1) EmpiricalDispersion=GD3 SP
 
 SP_-150

1 1
    C    2.506455    1.360731    -0.0
    C    3.7204079999999995    0.6814139999999999    -0.0
    C    3.6885609999999995    -0.6965799999999999    -0.0
    C    2.4434810000000002    -1.3958130000000004    -0.0
    C    -2.482481    -1.4185630000000002    -0.0
    C    -3.6770609999999997    -0.7275799999999999    -0.0
    C    -3.6792829999999994    0.6637889999999999    -0.0
    C    -2.4722049999999998    1.362231    -0.0
    C    0.011025    1.445669    -0.0
    C    -0.0305    -1.428839    0.0
    C    1.2572299999999998    0.667415    -0.0
    C    1.225671    -0.7298290000000001    -0.0
    C    -1.266355    0.6865399999999999    -0.0
    C    -1.2506709999999999    -0.7328289999999998    -0.0
    H    2.489471000000001    2.444222    -0.0
    H    4.655552999999999    1.220189    -0.0
    H    4.605112000000001    -1.270724    -0.0
    H    2.4589499999999997    -2.4787339999999993    -0.0
    H    -0.028125000000000004    -2.510091    0.0
    H    -2.4771999999999994    -2.5008589999999993    -0.0
    H    -4.612362000000001    -1.269599    -0.0
    H    -4.613927999999999    1.205814    -0.0
    H    -2.478971000000001    2.445347    -0.0
    H    0.04    2.1440370000000004    -0.8576600000000001
    H    0.04    2.1440370000000004    0.8576600000000001

