%NProcShared=48
%mem = 190GB
#n M062X/6-311++G(d,p) TD(NStates=1) EmpiricalDispersion=GD3 SP
 
 SP_-25

1 1
    C    2.472205    1.362231    -0.0
    C    3.6792829999999994    0.663789    -0.0
    C    3.677061    -0.7275799999999999    -0.0
    C    2.482481    -1.4185630000000002    -0.0
    C    -2.4434810000000002    -1.395813    -0.0
    C    -3.688561    -0.6965799999999999    -0.0
    C    -3.720408    0.681414    -0.0
    C    -2.5064550000000003    1.360731    -0.0
    C    -0.010849999999999999    1.4456689999999999    -0.0
    C    0.0305    -1.4288390000000002    0.0
    C    1.266355    0.6865399999999999    -0.0
    C    1.250671    -0.732829    -0.0
    C    -1.2572299999999998    0.667415    -0.0
    C    -1.2256709999999997    -0.7298290000000001    -0.0
    H    2.4789710000000005    2.445347    -0.0
    H    4.613928    1.2058139999999997    -0.0
    H    4.612362000000001    -1.269599    -0.0
    H    2.4772    -2.5008589999999993    -0.0
    H    0.028125000000000004    -2.510091    0.0
    H    -2.4589499999999997    -2.4787339999999993    -0.0
    H    -4.605112000000001    -1.270724    -0.0
    H    -4.655552999999999    1.220189    -0.0
    H    -2.489471000000001    2.444222    -0.0
    H    -0.04    2.144037    -0.8576600000000001
    H    -0.04    2.144037    0.8576600000000001

