%NProcShared=48
%mem = 190GB
#n M062X/6-311++G(d,p) TD(NStates=1) EmpiricalDispersion=GD3 SP
 
 SP_75

1 1
    C    2.468205    1.361631    0.0
    C    3.6724829999999997    0.659739    0.0
    C    3.675661    -0.73528    0.0
    C    2.4904309999999996    -1.423413    0.0
    C    -2.4358310000000003    -1.3915629999999999    0.0
    C    -3.6917609999999996    -0.6918799999999999    0.0
    C    -3.730058    0.684414    0.0
    C    -2.5161550000000004    1.3595309999999998    0.0
    C    -0.0153    1.4522689999999998    0.0
    C    0.0427    -1.4291390000000002    0.0
    C    1.268405    0.69044    0.0
    C    1.255071    -0.7329789999999999    0.0
    C    -1.2556299999999998    0.6636650000000001    0.0
    C    -1.220071    -0.7287790000000001    0.0
    H    2.4801710000000003    2.444597    0.0
    H    4.607327999999999    1.201814    0.0
    H    4.614262    -1.2712489999999999    0.0
    H    2.4804    -2.505509    0.0
    H    0.039375    -2.510241    0.0
    H    -2.4548500000000004    -2.474534    0.0
    H    -4.604112000000001    -1.272824    0.0
    H    -4.665603    1.221939    0.0
    H    -2.4948710000000003    2.4430219999999996    0.0
    H    -0.056    2.145537    -0.85931
    H    -0.056    2.145537    0.85931

