%NProcShared=48
%mem = 190GB
#n M062X/6-311++G(d,p) TD(NStates=1) EmpiricalDispersion=GD3 SP
 
 SP_-100

1 1
    C    2.5005550000000003    1.360731    -0.0
    C    3.712658    0.6777139999999999    -0.0
    C    3.6865609999999998    -0.7032799999999999    -0.0
    C    2.451331    -1.4004630000000002    -0.0
    C    -2.4747310000000002    -1.4141130000000002    -0.0
    C    -3.679661    -0.7218799999999999    -0.0
    C    -3.6879829999999996    0.6671389999999999    -0.0
    C    -2.4800050000000002    1.361631    -0.0
    C    0.006625000000000001    1.4478689999999999    -0.0
    C    -0.018299999999999997    -1.4289390000000002    0.0
    C    1.2591299999999999    0.671265    -0.0
    C    1.2304709999999999    -0.730279    -0.0
    C    -1.264605    0.6827399999999999    -0.0
    C    -1.245471    -0.7320789999999999    -0.0
    H    2.4884710000000005    2.444122    -0.0
    H    4.647803    1.216939    -0.0
    H    4.606712000000001    -1.271124    -0.0
    H    2.46245    -2.4832339999999995    -0.0
    H    -0.016875    -2.510141    0.0
    H    -2.4734    -2.4965089999999996    -0.0
    H    -4.611062    -1.270449    -0.0
    H    -4.622827999999999    1.2083139999999999    -0.0
    H    -2.4821710000000006    2.444797    -0.0
    H    0.024    2.144537    -0.85821
    H    0.024    2.144537    0.85821

