%NProcShared=48
%mem = 190GB
#n M062X/6-311++G(d,p) TD(NStates=1) EmpiricalDispersion=GD3 SP
 
 SP_50

1 1
    C    2.4906550000000003    1.360131    0.0
    C    3.698108    0.6699639999999999    0.0
    C    3.6831609999999997    -0.71768    0.0
    C    2.467131    -1.4099629999999999    0.0
    C    -2.4593309999999997    -1.4054129999999998    0.0
    C    -3.6854609999999997    -0.7114799999999999    0.0
    C    -3.7063330000000003    0.6734889999999999    0.0
    C    -2.4975050000000003    1.3598309999999998    0.0
    C    -0.0022250000000000004    1.4566689999999998    0.0
    C    0.0060999999999999995    -1.4293390000000001    0.0
    C    1.26308    0.679015    0.0
    C    1.2396710000000002    -0.7308790000000001    0.0
    C    -1.2612549999999998    0.67519    0.0
    C    -1.2346709999999999    -0.730279    0.0
    H    2.488671    2.4432719999999994    0.0
    H    4.633452999999999    1.209689    0.0
    H    4.610212    -1.273174    0.0
    H    2.46915    -2.4923840000000004    0.0
    H    0.005625    -2.5103410000000004    0.0
    H    -2.4655    -2.487959    0.0
    H    -4.6087620000000005    -1.273399    0.0
    H    -4.6417779999999995    1.2125640000000002    0.0
    H    -2.490771    2.443047    0.0
    H    -0.008    2.146537    -0.8604100000000001
    H    -0.008    2.146537    0.8604100000000001

