%NProcShared=48
%mem = 190GB
#n M062X/6-311++G(d,p) TD(NStates=1) EmpiricalDispersion=GD3 SP
 
 SP_125

1 1
    C    2.474005    1.360731    0.0
    C    3.6777830000000002    0.661064    0.0
    C    3.677561    -0.73343    0.0
    C    2.486656    -1.4213879999999999    0.0
    C    -2.4398560000000007    -1.394088    0.0
    C    -3.6913609999999997    -0.6962299999999999    0.0
    C    -3.7271330000000003    0.682214    0.0
    C    -2.515105    1.358931    0.0
    C    -0.013175000000000001    1.4577689999999999    0.0
    C    0.0366    -1.429389    0.0
    C    1.26768    0.68859    0.0
    C    1.252071    -0.7323040000000001    0.0
    C    -1.25673    0.66564    0.0
    C    -1.2220710000000001    -0.728704    0.0
    H    2.483971    2.4436720000000003    0.0
    H    4.612927999999999    1.202314    0.0
    H    4.613912    -1.2729239999999997    0.0
    H    2.4782    -2.5034840000000003    0.0
    H    0.03375    -2.5103660000000003    0.0
    H    -2.4563000000000006    -2.4769340000000004    0.0
    H    -4.605212    -1.2742740000000001    0.0
    H    -4.662878    1.219564    0.0
    H    -2.496571    2.442322    0.0
    H    -0.048    2.146787    -0.860685
    H    -0.048    2.146787    0.860685

