%NProcShared=48
%mem = 190GB
#n M062X/6-311++G(d,p) TD(NStates=1) EmpiricalDispersion=GD3 SP
 
 SP_-50

1 1
    C    2.521955    1.358631    0.0
    C    3.7353580000000006    0.6857390000000001    0.0
    C    3.6936609999999996    -0.6900299999999999    0.0
    C    2.432056    -1.3895379999999997    0.0
    C    -2.494456    -1.425938    0.0
    C    -3.675261    -0.7396300000000001    0.0
    C    -3.6695580000000003    0.6575390000000001    0.0
    C    -2.467155    1.361031    0.0
    C    0.01745    1.4577689999999999    0.0
    C    -0.048799999999999996    -1.429389    0.0
    C    1.254905    0.661815    0.0
    C    1.2170709999999998    -0.7281040000000001    0.0
    C    -1.269505    0.6924150000000001    0.0
    C    -1.2570710000000003    -0.732904    0.0
    H    2.498671    2.442097    0.0
    H    4.671203    1.222439    0.0
    H    4.603762    -1.274499    0.0
    H    2.452650000000001    -2.4725090000000005    0.0
    H    -0.045    -2.5103660000000003    0.0
    H    -2.4818500000000006    -2.5079090000000006    0.0
    H    -4.615361999999999    -1.2726989999999998    0.0
    H    -4.604602999999999    1.199439    0.0
    H    -2.481871    2.4438969999999998    0.0
    H    0.064    2.146787    -0.8606849999999999
    H    0.064    2.146787    0.8606849999999999

