%NProcShared=48
%mem = 190GB
#n M062X/6-311++G(d,p) TD(NStates=1) EmpiricalDispersion=GD3 SP
 
 SP_-150

1 1
    C    2.502555    1.361031    -0.0
    C    3.7160579999999994    0.6797389999999999    -0.0
    C    3.6872609999999995    -0.6994299999999998    -0.0
    C    2.447356    -1.3980380000000003    -0.0
    C    -2.4785559999999998    -1.4162380000000003    -0.0
    C    -3.6780609999999996    -0.7242299999999998    -0.0
    C    -3.6831579999999997    0.6656389999999999    -0.0
    C    -2.475155    1.362231    -0.0
    C    0.00885    1.444569    -0.0
    C    -0.0244    -1.428789    0.0
    C    1.258105    0.6693149999999999    -0.0
    C    1.228271    -0.7302040000000001    -0.0
    C    -1.265405    0.6846149999999999    -0.0
    C    -1.248271    -0.7326039999999998    -0.0
    H    2.487871000000001    2.4444969999999997    -0.0
    H    4.651102999999999    1.2189389999999998    -0.0
    H    4.605762    -1.270299    -0.0
    H    2.4608499999999998    -2.4809089999999996    -0.0
    H    -0.022500000000000003    -2.510066    0.0
    H    -2.4754499999999995    -2.498608999999999    -0.0
    H    -4.611562000000001    -1.269399    -0.0
    H    -4.6178029999999985    1.207439    -0.0
    H    -2.479471000000001    2.445397    -0.0
    H    0.032    2.1437870000000006    -0.8573850000000001
    H    0.032    2.1437870000000006    0.8573850000000001

