%NProcShared=48
%mem = 190GB
#n M062X/6-311++G(d,p) TD(NStates=1) EmpiricalDispersion=GD3 SP
 
 SP_75

1 1
    C    2.4955050000000005    1.3595309999999998    0.0
    C    3.7029330000000003    0.6714640000000001    0.0
    C    3.6847609999999995    -0.7153300000000001    0.0
    C    2.4633059999999998    -1.407838    0.0
    C    -2.463306    -1.4078379999999997    0.0
    C    -3.6847609999999995    -0.71533    0.0
    C    -3.7029330000000003    0.6714640000000001    0.0
    C    -2.4955050000000005    1.3595309999999998    0.0
    C    -7.500000000000041e-05    1.4599689999999996    0.0
    C    0.0    -1.4294890000000002    0.0
    C    1.2622799999999998    0.6771400000000002    0.0
    C    1.236871    -0.7303540000000001    0.0
    C    -1.2622799999999998    0.6771400000000001    0.0
    C    -1.236871    -0.7303540000000001    0.0
    H    2.491371    2.442672    0.0
    H    4.638477999999999    1.2105640000000002    0.0
    H    4.609712    -1.2742239999999998    0.0
    H    2.4671000000000007    -2.4902840000000004    0.0
    H    0.0    -2.5104160000000006    0.0
    H    -2.4671000000000007    -2.4902840000000004    0.0
    H    -4.609712    -1.2742239999999998    0.0
    H    -4.638477999999999    1.2105640000000002    0.0
    H    -2.491371    2.4426719999999995    0.0
    H    0.0    2.147287    -0.861235
    H    0.0    2.147287    0.861235

