%NProcShared=48
%mem = 190GB
#n M062X/6-311++G(d,p) TD(NStates=1) EmpiricalDispersion=GD3 SP
 
 SP_150

1 1
    C    2.4944550000000003    1.358931    0.0
    C    3.700008000000001    0.6692640000000001    0.0
    C    3.684361    -0.7196800000000001    0.0
    C    2.467331    -1.4103629999999994    0.0
    C    -2.459531    -1.4058129999999995    0.0
    C    -3.686661    -0.7134800000000001    0.0
    C    -3.708233000000001    0.6727890000000001    0.0
    C    -2.5013050000000003    1.358631    0.0
    C    -0.0023250000000000007    1.4654689999999997    0.0
    C    0.006099999999999998    -1.429739    0.0
    C    1.26338    0.6791150000000001    0.0
    C    1.238871    -0.730279    0.0
    C    -1.261555    0.6752900000000002    0.0
    C    -1.2338710000000002    -0.7296790000000002    0.0
    H    2.493070999999999    2.441972    0.0
    H    4.635753    1.2081890000000002    0.0
    H    4.610811999999999    -1.275674    0.0
    H    2.468550000000001    -2.492684000000001    0.0
    H    0.0056250000000000015    -2.5105410000000004    0.0
    H    -2.464900000000001    -2.488259000000001    0.0
    H    -4.609361999999999    -1.275899    0.0
    H    -4.644078    1.2110640000000001    0.0
    H    -2.495170999999999    2.441747    0.0
    H    -0.008    2.1485369999999993    -0.86261
    H    -0.008    2.1485369999999993    0.86261

