%NProcShared=48
%mem = 190GB
#n M062X/6-311++G(d,p) TD(NStates=1) EmpiricalDispersion=GD3 SP
 
 SP_-50

1 1
    C    2.475155    1.362231    -0.0
    C    3.6831579999999997    0.6656389999999999    -0.0
    C    3.6780610000000005    -0.7242299999999999    -0.0
    C    2.478556    -1.416238    -0.0
    C    -2.4473560000000005    -1.3980380000000001    -0.0
    C    -3.6872610000000003    -0.6994299999999999    -0.0
    C    -3.7160579999999994    0.6797389999999999    -0.0
    C    -2.502555    1.361031    -0.0
    C    -0.008649999999999998    1.444569    -0.0
    C    0.0244    -1.428789    0.0
    C    1.265405    0.684615    -0.0
    C    1.248271    -0.7326039999999998    -0.0
    C    -1.258105    0.669315    -0.0
    C    -1.228271    -0.7302040000000001    -0.0
    H    2.479471    2.4453970000000003    -0.0
    H    4.617803    1.207439    -0.0
    H    4.611562000000001    -1.269399    -0.0
    H    2.4754499999999995    -2.498608999999999    -0.0
    H    0.022500000000000003    -2.5100659999999992    0.0
    H    -2.4608499999999998    -2.4809089999999996    -0.0
    H    -4.605762    -1.270299    -0.0
    H    -4.651103000000001    1.2189389999999998    -0.0
    H    -2.487871    2.444497    -0.0
    H    -0.032    2.1437869999999997    -0.8573850000000001
    H    -0.032    2.1437869999999997    0.8573850000000001

