%NProcShared=48
%mem = 190GB
#n M062X/6-311++G(d,p) TD(NStates=1) EmpiricalDispersion=GD3 SP
 
 SP_150

1 1
    C    2.459355    1.361631    0.0
    C    3.660858    0.654189    0.0
    C    3.672661    -0.74533    0.0
    C    2.5022059999999997    -1.4303879999999998    0.0
    C    -2.4242060000000007    -1.384888    0.0
    C    -3.695661    -0.68333    0.0
    C    -3.7431080000000003    0.689439    0.0
    C    -2.527855    1.358631    0.0
    C    -0.0219    1.455569    0.0
    C    0.061    -1.429289    0.0
    C    1.271255    0.696215    0.0
    C    1.262271    -0.7336539999999999    0.0
    C    -1.253005    0.6579650000000001    0.0
    C    -1.212271    -0.7276540000000001    0.0
    H    2.478671    2.4444470000000003    0.0
    H    4.595702999999999    1.196939    0.0
    H    4.616662    -1.2718489999999998    0.0
    H    2.48565    -2.5122590000000002    0.0
    H    0.05625    -2.510316    0.0
    H    -2.449150000000001    -2.4680090000000003    0.0
    H    -4.602162    -1.274099    0.0
    H    -4.678953000000001    1.225689    0.0
    H    -2.4996709999999998    2.4421969999999997    0.0
    H    -0.08    2.1462869999999996    -0.860135
    H    -0.08    2.1462869999999996    0.860135

