%NProcShared=48
%mem = 190GB
#n M062X/6-311++G(d,p) TD(NStates=1) EmpiricalDispersion=GD3 SP
 
 SP_-125

1 1
    C    2.5152050000000004    1.3598309999999998    0.0
    C    3.729583    0.6845889999999999    0.0
    C    3.6914609999999994    -0.6913799999999999    0.0
    C    2.4357810000000004    -1.3914630000000001    0.0
    C    -2.4903809999999997    -1.4233129999999998    0.0
    C    -3.6753609999999997    -0.73478    0.0
    C    -3.672008    0.6599139999999999    0.0
    C    -2.467255    1.361931    0.0
    C    0.01535    1.4500689999999998    0.0
    C    -0.0427    -1.4290390000000002    0.0
    C    1.2555549999999998    0.66364    0.0
    C    1.2202709999999999    -0.7289289999999999    0.0
    C    -1.26833    0.690415    0.0
    C    -1.255271    -0.7331289999999999    0.0
    H    2.4937710000000006    2.4433469999999997    0.0
    H    4.6650279999999995    1.222314    0.0
    H    4.603962000000001    -1.272199    0.0
    H    2.455    -2.4744589999999995    0.0
    H    -0.039375    -2.510191    0.0
    H    -2.48055    -2.5054339999999997    0.0
    H    -4.614112    -1.2706239999999998    0.0
    H    -4.606752999999999    1.202189    0.0
    H    -2.4790710000000002    2.444922    0.0
    H    0.056    2.1450370000000003    -0.85876
    H    0.056    2.1450370000000003    0.85876

