%NProcShared=48
%mem = 190GB
#n M062X/6-311++G(d,p) TD(NStates=1) EmpiricalDispersion=GD3 SP
 
 SP_-75

1 1
    C    2.497605    1.360731    -0.0
    C    3.708783    0.6758639999999999    -0.0
    C    3.685561    -0.7066299999999999    -0.0
    C    2.4552560000000003    -1.4027880000000001    -0.0
    C    -2.4708560000000004    -1.4118880000000003    -0.0
    C    -3.680961    -0.7190299999999998    -0.0
    C    -3.6923329999999996    0.6688139999999999    -0.0
    C    -2.483905    1.361331    -0.0
    C    0.004425    1.448969    -0.0
    C    -0.0122    -1.428989    0.0
    C    1.2600799999999999    0.67319    -0.0
    C    1.2328709999999998    -0.730504    -0.0
    C    -1.26373    0.6808399999999999    -0.0
    C    -1.242871    -0.7317039999999999    -0.0
    H    2.4879710000000004    2.4440720000000002    -0.0
    H    4.643928    1.215314    -0.0
    H    4.607512000000001    -1.271324    -0.0
    H    2.4642    -2.4854839999999996    -0.0
    H    -0.011250000000000001    -2.510166    0.0
    H    -2.4715    -2.494334    -0.0
    H    -4.610412    -1.270874    -0.0
    H    -4.627278    1.2095639999999999    -0.0
    H    -2.4837710000000004    2.444522    -0.0
    H    0.016    2.144787    -0.858485
    H    0.016    2.144787    0.858485

