%NProcShared=48
%mem = 190GB
#n M062X/6-311++G(d,p) TD(NStates=1) EmpiricalDispersion=GD3 SP
 
 SP_-25

1 1
    C    2.499505    1.360131    0.0
    C    3.709733    0.675514    0.0
    C    3.686161    -0.70763    0.0
    C    2.455356    -1.4029880000000001    0.0
    C    -2.470956    -1.4120879999999998    0.0
    C    -3.681561    -0.72003    0.0
    C    -3.693283    0.668464    0.0
    C    -2.485805    1.360731    0.0
    C    0.004375    1.453369    0.0
    C    -0.012199999999999999    -1.429189    0.0
    C    1.26023    0.6732400000000001    0.0
    C    1.232471    -0.730204    0.0
    C    -1.26388    0.68089    0.0
    C    -1.2424709999999999    -0.731404    0.0
    H    2.490171    2.443422    0.0
    H    4.645078    1.214564    0.0
    H    4.607812    -1.272574    0.0
    H    2.4639    -2.485634    0.0
    H    -0.01125    -2.510266    0.0
    H    -2.4712    -2.494484    0.0
    H    -4.610712    -1.2721239999999998    0.0
    H    -4.6284279999999995    1.208814    0.0
    H    -2.485971    2.443872    0.0
    H    0.016    2.145787    -0.859585
    H    0.016    2.145787    0.859585

