%NProcShared=48
%mem = 190GB
#n M062X/6-311++G(d,p) TD(NStates=1) EmpiricalDispersion=GD3 SP
 
 SP_150

1 1
    C    2.471055    1.360731    0.0
    C    3.6739080000000004    0.6592140000000001    0.0
    C    3.676561    -0.7367800000000001    0.0
    C    2.4905809999999997    -1.4237129999999998    0.0
    C    -2.435981000000001    -1.3918629999999999    0.0
    C    -3.6926609999999997    -0.6933800000000001    0.0
    C    -3.7314830000000003    0.6838890000000001    0.0
    C    -2.519005    1.358631    0.0
    C    -0.015375    1.458869    0.0
    C    0.0427    -1.429439    0.0
    C    1.26863    0.6905150000000001    0.0
    C    1.254471    -0.732529    0.0
    C    -1.255855    0.6637400000000002    0.0
    C    -1.2194710000000002    -0.7283290000000001    0.0
    H    2.4834709999999998    2.4436220000000004    0.0
    H    4.609052999999999    1.2006890000000001    0.0
    H    4.614712    -1.2731239999999997    0.0
    H    2.4799500000000005    -2.5057340000000003    0.0
    H    0.039375    -2.5103910000000003    0.0
    H    -2.454400000000001    -2.4747590000000006    0.0
    H    -4.604562    -1.274699    0.0
    H    -4.667328    1.220814    0.0
    H    -2.4981709999999997    2.4420469999999996    0.0
    H    -0.056    2.1470369999999996    -0.86096
    H    -0.056    2.1470369999999996    0.86096

