%NProcShared=48
%mem = 190GB
#n M062X/6-311++G(d,p) TD(NStates=1) EmpiricalDispersion=GD3 SP
 
 SP_125

1 1
    C    2.458405    1.361931    0.0
    C    3.660383    0.654364    0.0
    C    3.672361    -0.74483    0.0
    C    2.502156    -1.430288    0.0
    C    -2.424156000000001    -1.3847880000000001    0.0
    C    -3.6953609999999997    -0.6828299999999998    0.0
    C    -3.742633    0.689614    0.0
    C    -2.526905    1.358931    0.0
    C    -0.021875    1.453369    0.0
    C    0.061000000000000006    -1.429189    0.0
    C    1.27118    0.69619    0.0
    C    1.262471    -0.733804    0.0
    C    -1.2529299999999999    0.65794    0.0
    C    -1.212471    -0.727804    0.0
    H    2.477571    2.4447720000000004    0.0
    H    4.595127999999999    1.197314    0.0
    H    4.616512    -1.2712239999999997    0.0
    H    2.4858    -2.512184    0.0
    H    0.05625    -2.510266    0.0
    H    -2.4493000000000005    -2.467934    0.0
    H    -4.602012    -1.2734740000000002    0.0
    H    -4.678378    1.226064    0.0
    H    -2.498571    2.442522    0.0
    H    -0.08    2.145787    -0.859585
    H    -0.08    2.145787    0.859585

