%NProcShared=48
%mem = 190GB
#n M062X/6-311++G(d,p) TD(NStates=1) EmpiricalDispersion=GD3 SP
 
 SP_125

1 1
    C    2.501305    1.358631    0.0
    C    3.708233000000001    0.6727890000000001    0.0
    C    3.686661    -0.7134800000000001    0.0
    C    2.459531    -1.4058129999999995    0.0
    C    -2.467331    -1.4103629999999998    0.0
    C    -3.684361    -0.7196800000000001    0.0
    C    -3.7000080000000004    0.6692640000000001    0.0
    C    -2.494455    1.358931    0.0
    C    0.002049999999999998    1.465469    0.0
    C    -0.006099999999999998    -1.4297389999999999    0.0
    C    1.261555    0.6752900000000002    0.0
    C    1.2338710000000002    -0.7296790000000002    0.0
    C    -1.26338    0.6791150000000001    0.0
    C    -1.238871    -0.7302790000000001    0.0
    H    2.495170999999999    2.441747    0.0
    H    4.644078    1.2110640000000004    0.0
    H    4.609361999999999    -1.275899    0.0
    H    2.464900000000001    -2.488259000000001    0.0
    H    -0.0056250000000000015    -2.510541000000001    0.0
    H    -2.4685500000000005    -2.492684000000001    0.0
    H    -4.610811999999999    -1.275674    0.0
    H    -4.635752999999999    1.2081890000000002    0.0
    H    -2.4930709999999996    2.441972    0.0
    H    0.008    2.1485369999999993    -0.8626100000000001
    H    0.008    2.1485369999999993    0.8626100000000001

