%NProcShared=48
%mem = 190GB
#n M062X/6-311++G(d,p) TD(NStates=1) EmpiricalDispersion=GD3 SP
 
 SP_-125

1 1
    C    2.4996050000000003    1.361031    -0.0
    C    3.7121829999999996    0.677889    -0.0
    C    3.686261    -0.70278    -0.0
    C    2.451281    -1.4003630000000002    -0.0
    C    -2.474681    -1.4140130000000002    -0.0
    C    -3.679361    -0.7213799999999999    -0.0
    C    -3.6875079999999993    0.667314    -0.0
    C    -2.4790550000000002    1.361931    -0.0
    C    0.006650000000000001    1.4456689999999999    -0.0
    C    -0.018300000000000004    -1.4288390000000002    0.0
    C    1.259055    0.6712400000000001    -0.0
    C    1.230671    -0.730429    -0.0
    C    -1.26453    0.682715    -0.0
    C    -1.2456709999999998    -0.732229    -0.0
    H    2.4873710000000004    2.444447    -0.0
    H    4.647228    1.217314    -0.0
    H    4.606562    -1.270499    -0.0
    H    2.4626    -2.4831589999999997    -0.0
    H    -0.016875    -2.510091    0.0
    H    -2.4735499999999995    -2.4964339999999994    -0.0
    H    -4.610912000000001    -1.2698239999999998    -0.0
    H    -4.622252999999999    1.208689    -0.0
    H    -2.481071000000001    2.4451219999999996    -0.0
    H    0.024    2.144037    -0.8576600000000001
    H    0.024    2.144037    0.8576600000000001

