%NProcShared=48
%mem = 190GB
#n M062X/6-311++G(d,p) TD(NStates=1) EmpiricalDispersion=GD3 SP
 
 SP_125

1 1
    C    2.4818049999999996    1.360131    0.0
    C    3.6864830000000004    0.664414    0.0
    C    3.680161    -0.72773    0.0
    C    2.4789060000000003    -1.4169379999999996    0.0
    C    -2.447706    -1.3987379999999998    0.0
    C    -3.689361    -0.70293    0.0
    C    -3.7193830000000005    0.678514    0.0
    C    -2.5092049999999997    1.358931    0.0
    C    -0.008825000000000001    1.459969    0.0
    C    0.024400000000000005    -1.4294889999999998    0.0
    C    1.26593    0.68479    0.0
    C    1.246871    -0.731554    0.0
    C    -1.25863    0.6694900000000001    0.0
    C    -1.226871    -0.7291540000000001    0.0
    H    2.4871709999999996    2.443122    0.0
    H    4.621828    1.204814    0.0
    H    4.6126119999999995    -1.273774    0.0
    H    2.4744    -2.4991340000000006    0.0
    H    0.0225    -2.510416    0.0
    H    -2.4598000000000004    -2.4814340000000006    0.0
    H    -4.606812    -1.274674    0.0
    H    -4.655128    1.2163140000000001    0.0
    H    -2.4955709999999995    2.442222    0.0
    H    -0.032    2.1472869999999995    -0.8612350000000001
    H    -0.032    2.1472869999999995    0.8612350000000001

