%NProcShared=48
%mem = 190GB
#n M062X/6-311++G(d,p) TD(NStates=1) EmpiricalDispersion=GD3 SP
 
 SP_150

1 1
    C    2.451555    1.362231    0.0
    C    3.652158    0.650839    0.0
    C    3.6700610000000005    -0.7510300000000001    0.0
    C    2.509956    -1.4348379999999998    0.0
    C    -2.416356000000001    -1.3802379999999999    0.0
    C    -3.697661    -0.67663    0.0
    C    -3.750858    0.693139    0.0
    C    -2.533755    1.358631    0.0
    C    -0.02625    1.453369    0.0
    C    0.0732    -1.429189    0.0
    C    1.273005    0.700015    0.0
    C    1.267471    -0.7344039999999998    0.0
    C    -1.251105    0.6541150000000001    0.0
    C    -1.207471    -0.7272040000000002    0.0
    H    2.4754709999999998    2.4449970000000003    0.0
    H    4.586803    1.194439    0.0
    H    4.617962    -1.2709989999999998    0.0
    H    2.4894499999999997    -2.516609    0.0
    H    0.0675    -2.5102659999999997    0.0
    H    -2.4456500000000005    -2.463509    0.0
    H    -4.600562    -1.2736990000000001    0.0
    H    -4.686703000000001    1.228939    0.0
    H    -2.5006709999999996    2.442297    0.0
    H    -0.096    2.1457869999999994    -0.859585
    H    -0.096    2.1457869999999994    0.859585

