%NProcShared=48
%mem = 190GB
#n M062X/6-311++G(d,p) TD(NStates=1) EmpiricalDispersion=GD3 SP
 
 SP_125

1 1
    C    2.4662049999999995    1.361331    0.0
    C    3.669083    0.6577139999999999    0.0
    C    3.674961    -0.73913    0.0
    C    2.494406    -1.4258379999999997    0.0
    C    -2.4320060000000003    -1.389438    0.0
    C    -3.693361    -0.68953    0.0
    C    -3.7348830000000004    0.6859139999999999    0.0
    C    -2.5210049999999997    1.358931    0.0
    C    -0.017525    1.4555690000000001    0.0
    C    0.0488    -1.4292889999999998    0.0
    C    1.26943    0.69239    0.0
    C    1.257271    -0.733054    0.0
    C    -1.25483    0.6617900000000001    0.0
    C    -1.217271    -0.7282540000000001    0.0
    H    2.480771    2.444222    0.0
    H    4.604028    1.199814    0.0
    H    4.615212    -1.272074    0.0
    H    2.4819999999999998    -2.5078340000000003    0.0
    H    0.045    -2.510316    0.0
    H    -2.4528000000000003    -2.4724340000000002    0.0
    H    -4.603612    -1.2738740000000002    0.0
    H    -4.670628000000001    1.222814    0.0
    H    -2.4975709999999998    2.442422    0.0
    H    -0.064    2.1462869999999996    -0.8601350000000001
    H    -0.064    2.1462869999999996    0.8601350000000001

