%NProcShared=48
%mem = 190GB
#n M062X/6-311++G(d,p) TD(NStates=1) EmpiricalDispersion=GD3 SP
 
 SP_0

1 1
    C    2.492655    1.360431    0.0
    C    3.701508    0.671989    0.0
    C    3.683861    -0.71383    0.0
    C    2.463156    -1.407538    0.0
    C    -2.463156    -1.407538    0.0
    C    -3.683861    -0.71383    0.0
    C    -3.701508    0.671989    0.0
    C    -2.492655    1.360431    0.0
    C    0.0    1.453369    0.0
    C    0.0    -1.429189    0.0
    C    1.262055    0.677065    0.0
    C    1.237471    -0.730804    0.0
    C    -1.262055    0.677065    0.0
    C    -1.237471    -0.730804    0.0
    H    2.488071    2.443647    0.0
    H    4.636753    1.211689    0.0
    H    4.609262    -1.272349    0.0
    H    2.46755    -2.490059    0.0
    H    0.0    -2.510266    0.0
    H    -2.46755    -2.490059    0.0
    H    -4.609262    -1.272349    0.0
    H    -4.636753    1.211689    0.0
    H    -2.488071    2.443647    0.0
    H    0.0    2.145787    -0.859585
    H    0.0    2.145787    0.859585

