%NProcShared=48
%mem = 190GB
#n M062X/6-311++G(d,p) TD(NStates=1) EmpiricalDispersion=GD3 SP
 
 SP_-75

1 1
    C    2.501505    1.360431    0.0
    C    3.713133    0.6775389999999999    0.0
    C    3.686861    -0.7037799999999999    0.0
    C    2.4513810000000005    -1.400563    0.0
    C    -2.474781    -1.4142130000000002    0.0
    C    -3.679961    -0.7223799999999999    0.0
    C    -3.688458    0.6669639999999999    0.0
    C    -2.480955    1.361331    0.0
    C    0.0066    1.450069    0.0
    C    -0.0183    -1.429039    0.0
    C    1.259205    0.6712899999999999    0.0
    C    1.230271    -0.730129    0.0
    C    -1.26468    0.682765    0.0
    C    -1.245271    -0.7319289999999999    0.0
    H    2.489571    2.443797    0.0
    H    4.648378    1.216564    0.0
    H    4.6068620000000005    -1.271749    0.0
    H    2.4623    -2.4833089999999998    0.0
    H    -0.016875    -2.510191    0.0
    H    -2.4732499999999997    -2.496584    0.0
    H    -4.611212    -1.271074    0.0
    H    -4.623403    1.2079389999999999    0.0
    H    -2.4832710000000002    2.444472    0.0
    H    0.024    2.145037    -0.8587600000000001
    H    0.024    2.145037    0.8587600000000001

