%NProcShared=48
%mem = 190GB
#n M062X/6-311++G(d,p) TD(NStates=1) EmpiricalDispersion=GD3 SP
 
 SP_-150

1 1
    C    2.522055    1.3595309999999998    0.0
    C    3.737808    0.6881139999999999    0.0
    C    3.6937609999999994    -0.6851799999999999    0.0
    C    2.4279810000000004    -1.3869130000000003    0.0
    C    -2.4981809999999998    -1.427863    0.0
    C    -3.6730609999999997    -0.74098    0.0
    C    -3.6637829999999996    0.6563889999999999    0.0
    C    -2.4604049999999997    1.362231    0.0
    C    0.019725    1.450069    0.0
    C    -0.054900000000000004    -1.429039    0.0
    C    1.2537299999999998    0.659815    0.0
    C    1.215271    -0.7283290000000001    0.0
    C    -1.270155    0.69424    0.0
    C    -1.260271    -0.7337289999999999    0.0
    H    2.4958710000000006    2.443122    0.0
    H    4.673353    1.225189    0.0
    H    4.602512000000001    -1.272424    0.0
    H    2.45135    -2.4700339999999996    0.0
    H    -0.050625    -2.5101910000000003    0.0
    H    -2.4841999999999995    -2.5098589999999996    0.0
    H    -4.615562000000001    -1.2703989999999998    0.0
    H    -4.598427999999998    1.199314    0.0
    H    -2.4769710000000007    2.445147    0.0
    H    0.07200000000000001    2.1450370000000003    -0.8587600000000001
    H    0.07200000000000001    2.1450370000000003    0.8587600000000001

