%NProcShared=48
%mem = 190GB
#n M062X/6-311++G(d,p) TD(NStates=1) EmpiricalDispersion=GD3 SP
 
 SP_-75

1 1
    C    2.524905    1.358631    0.0
    C    3.7392330000000005    0.687589    0.0
    C    3.694661    -0.68668    0.0
    C    2.4281310000000005    -1.3872129999999998    0.0
    C    -2.498331    -1.428163    0.0
    C    -3.6739610000000003    -0.74248    0.0
    C    -3.665208    0.655864    0.0
    C    -2.4632549999999998    1.361331    0.0
    C    0.01965    1.456669    0.0
    C    -0.054900000000000004    -1.429339    0.0
    C    1.253955    0.6598900000000001    0.0
    C    1.214671    -0.7278790000000002    0.0
    C    -1.27038    0.694315    0.0
    C    -1.259671    -0.733279    0.0
    H    2.4991709999999996    2.442147    0.0
    H    4.675078000000001    1.2240640000000003    0.0
    H    4.602962    -1.274299    0.0
    H    2.4509000000000007    -2.4702590000000004    0.0
    H    -0.050625    -2.5103410000000004    0.0
    H    -2.4837499999999997    -2.5100840000000004    0.0
    H    -4.616012    -1.272274    0.0
    H    -4.600152999999999    1.198189    0.0
    H    -2.480271    2.444172    0.0
    H    0.07200000000000001    2.1465369999999995    -0.8604100000000001
    H    0.07200000000000001    2.1465369999999995    0.8604100000000001

