%NProcShared=48
%mem = 190GB
#n M062X/6-311++G(d,p) TD(NStates=1) EmpiricalDispersion=GD3 SP
 
 SP_-50

1 1
    C    2.482955    1.361631    -0.0
    C    3.691858    0.668989    -0.0
    C    3.680661    -0.7185299999999999    -0.0
    C    2.470806    -1.411788    -0.0
    C    -2.4552060000000004    -1.4026880000000002    -0.0
    C    -3.685261    -0.7061299999999999    -0.0
    C    -3.7083079999999997    0.676039    -0.0
    C    -2.496655    1.361031    -0.0
    C    -0.004299999999999999    1.446769    -0.0
    C    0.012199999999999999    -1.428889    0.0
    C    1.263655    0.680815    -0.0
    C    1.2430709999999998    -0.7318539999999999    -0.0
    C    -1.260005    0.673165    -0.0
    C    -1.233071    -0.730654    -0.0
    H    2.4826710000000003    2.444847    -0.0
    H    4.626703    1.2099389999999999    -0.0
    H    4.6102620000000005    -1.270249    -0.0
    H    2.47165    -2.4942589999999996    -0.0
    H    0.01125    -2.5101159999999996    0.0
    H    -2.46435    -2.4854089999999998    -0.0
    H    -4.607362    -1.270699    -0.0
    H    -4.643353    1.2156889999999998    -0.0
    H    -2.4868710000000003    2.444397    -0.0
    H    -0.016    2.144287    -0.857935
    H    -0.016    2.144287    0.857935

