%NProcShared=48
%mem = 190GB
#n M062X/6-311++G(d,p) TD(NStates=1) EmpiricalDispersion=GD3 SP
 
 SP_50

1 1
    C    2.494555    1.3598309999999998    0.0
    C    3.702458    0.6716389999999999    0.0
    C    3.6844609999999998    -0.7148300000000001    0.0
    C    2.4632560000000003    -1.407738    0.0
    C    -2.463256    -1.4077379999999997    0.0
    C    -3.6844609999999998    -0.71483    0.0
    C    -3.702458    0.6716389999999999    0.0
    C    -2.494555    1.3598309999999998    0.0
    C    -5.0000000000000565e-05    1.4577689999999999    0.0
    C    0.0    -1.429389    0.0
    C    1.2622049999999998    0.6771150000000001    0.0
    C    1.2370710000000003    -0.730504    0.0
    C    -1.2622049999999998    0.677115    0.0
    C    -1.2370709999999998    -0.730504    0.0
    H    2.490271    2.4429969999999996    0.0
    H    4.637903    1.2109390000000002    0.0
    H    4.609562    -1.273599    0.0
    H    2.46725    -2.490209    0.0
    H    0.0    -2.5103660000000003    0.0
    H    -2.46725    -2.490209    0.0
    H    -4.609562    -1.273599    0.0
    H    -4.637903    1.2109390000000002    0.0
    H    -2.490271    2.442997    0.0
    H    0.0    2.146787    -0.8606850000000001
    H    0.0    2.146787    0.8606850000000001

