%NProcShared=48
%mem = 190GB
#n M062X/6-311++G(d,p) TD(NStates=1) EmpiricalDispersion=GD3 SP
 
 SP_100

1 1
    C    2.465255    1.361631    0.0
    C    3.668608    0.657889    0.0
    C    3.674661    -0.73863    0.0
    C    2.494356    -1.425738    0.0
    C    -2.4319560000000005    -1.389338    0.0
    C    -3.6930609999999997    -0.6890299999999999    0.0
    C    -3.734408    0.686089    0.0
    C    -2.520055    1.3592309999999999    0.0
    C    -0.0175    1.453369    0.0
    C    0.048799999999999996    -1.429189    0.0
    C    1.269355    0.692365    0.0
    C    1.257471    -0.733204    0.0
    C    -1.2547549999999998    0.661765    0.0
    C    -1.217471    -0.728404    0.0
    H    2.479671    2.444547    0.0
    H    4.603452999999999    1.200189    0.0
    H    4.615062    -1.2714489999999998    0.0
    H    2.48215    -2.507759    0.0
    H    0.045    -2.510266    0.0
    H    -2.4529500000000004    -2.472359    0.0
    H    -4.603462    -1.273249    0.0
    H    -4.670053    1.223189    0.0
    H    -2.496471    2.442747    0.0
    H    -0.064    2.145787    -0.859585
    H    -0.064    2.145787    0.859585

