%NProcShared=48
%mem = 190GB
#n M062X/6-311++G(d,p) TD(NStates=1) EmpiricalDispersion=GD3 SP
 
 SP_50

1 1
    C    2.4750550000000002    1.361331    0.0
    C    3.6807079999999996    0.6632639999999999    0.0
    C    3.677961    -0.72908    0.0
    C    2.482631    -1.418863    0.0
    C    -2.443631    -1.396113    0.0
    C    -3.6894609999999997    -0.6980799999999998    0.0
    C    -3.721833    0.6808889999999999    0.0
    C    -2.5093050000000003    1.3598309999999998    0.0
    C    -0.010925    1.4522689999999998    0.0
    C    0.0305    -1.4291390000000002    0.0
    C    1.26658    0.686615    0.0
    C    1.2500710000000002    -0.732379    0.0
    C    -1.2574549999999998    0.6674899999999999    0.0
    C    -1.2250709999999998    -0.729379    0.0
    H    2.4822710000000003    2.4443719999999995    0.0
    H    4.615652999999999    1.204689    0.0
    H    4.612812    -1.271474    0.0
    H    2.4767499999999996    -2.501084    0.0
    H    0.028125    -2.510241    0.0
    H    -2.4585    -2.4789589999999997    0.0
    H    -4.605562000000001    -1.272599    0.0
    H    -4.657278    1.2190640000000001    0.0
    H    -2.4927710000000003    2.443247    0.0
    H    -0.04    2.145537    -0.8593100000000001
    H    -0.04    2.145537    0.8593100000000001

