%NProcShared=48
%mem = 190GB
#n M062X/6-311++G(d,p) TD(NStates=1) EmpiricalDispersion=GD3 SP
 
 SP_-125

1 1
    C    2.4840050000000002    1.362231    -0.0
    C    3.6947829999999993    0.6711889999999998    -0.0
    C    3.6810609999999997    -0.7141799999999998    -0.0
    C    2.466781    -1.4092630000000004    -0.0
    C    -2.458981    -1.404713    -0.0
    C    -3.6833609999999997    -0.7079799999999998    -0.0
    C    -3.7030079999999996    0.6747139999999998    -0.0
    C    -2.4908550000000003    1.361931    -0.0
    C    -0.002049999999999998    1.441269    -0.0
    C    0.006099999999999998    -1.4286390000000002    0.0
    C    1.2625549999999999    0.6788399999999999    -0.0
    C    1.2410709999999998    -0.7319289999999998    -0.0
    C    -1.26073    0.6750149999999999    -0.0
    C    -1.236071    -0.7313289999999999    -0.0
    H    2.480971000000001    2.445547    -0.0
    H    4.629427999999999    1.2123139999999997    -0.0
    H    4.609162000000001    -1.268799    -0.0
    H    2.4701999999999993    -2.491858999999999    -0.0
    H    0.0056250000000000015    -2.5099909999999994    0.0
    H    -2.46655    -2.487433999999999    -0.0
    H    -4.607712000000001    -1.269024    -0.0
    H    -4.637753    1.2151889999999999    -0.0
    H    -2.4830710000000007    2.445322    -0.0
    H    -0.008    2.1430370000000005    -0.85656
    H    -0.008    2.1430370000000005    0.85656

