%NProcShared=48
%mem = 190GB
#n M062X/6-311++G(d,p) TD(NStates=1) EmpiricalDispersion=GD3 SP
 
 SP_25

1 1
    C    2.4663049999999997    1.362231    0.0
    C    3.6715329999999997    0.6600889999999999    0.0
    C    3.6750610000000004    -0.7342799999999998    0.0
    C    2.4903310000000003    -1.423213    0.0
    C    -2.4357310000000005    -1.3913630000000001    0.0
    C    -3.691161    -0.6908799999999998    0.0
    C    -3.729108    0.6847639999999999    0.0
    C    -2.514255    1.360131    0.0
    C    -0.01525    1.447869    0.0
    C    0.0427    -1.428939    0.0
    C    1.268255    0.6903899999999998    0.0
    C    1.255471    -0.733279    0.0
    C    -1.25548    0.663615    0.0
    C    -1.2204709999999999    -0.729079    0.0
    H    2.477971    2.445247    0.0
    H    4.606178    1.2025639999999997    0.0
    H    4.613962000000001    -1.2699989999999999    0.0
    H    2.4806999999999997    -2.5053589999999994    0.0
    H    0.039375    -2.510141    0.0
    H    -2.4551499999999997    -2.4743839999999997    0.0
    H    -4.6038120000000005    -1.2715740000000002    0.0
    H    -4.664453    1.222689    0.0
    H    -2.4926710000000005    2.4436720000000003    0.0
    H    -0.056    2.1445369999999997    -0.8582100000000001
    H    -0.056    2.1445369999999997    0.8582100000000001

