%NProcShared=48
%mem = 190GB
#n M062X/6-311++G(d,p) TD(NStates=1) EmpiricalDispersion=GD3 SP
 
 SP_75

1 1
    C    2.5072050000000004    1.358631    0.0
    C    3.7159830000000005    0.6764890000000001    0.0
    C    3.6886609999999997    -0.7067800000000002    0.0
    C    2.4516809999999998    -1.4011629999999997    0.0
    C    -2.475081    -1.4148129999999997    0.0
    C    -3.681761    -0.7253800000000001    0.0
    C    -3.6913080000000003    0.6659140000000001    0.0
    C    -2.4866550000000003    1.3595309999999998    0.0
    C    0.006449999999999999    1.4632689999999997    0.0
    C    -0.0183    -1.429639    0.0
    C    1.259655    0.6714400000000003    0.0
    C    1.2290710000000002    -0.7292290000000001    0.0
    C    -1.2651299999999999    0.6829150000000002    0.0
    C    -1.244071    -0.7310290000000002    0.0
    H    2.4961709999999995    2.4418469999999997    0.0
    H    4.651828    1.2143140000000003    0.0
    H    4.607761999999999    -1.275499    0.0
    H    2.461400000000001    -2.483759000000001    0.0
    H    -0.016875    -2.510491000000001    0.0
    H    -2.4723500000000005    -2.4970340000000006    0.0
    H    -4.612112    -1.2748239999999997    0.0
    H    -4.626852999999999    1.2056890000000002    0.0
    H    -2.489871    2.4425219999999994    0.0
    H    0.024    2.1480369999999995    -0.86206
    H    0.024    2.1480369999999995    0.86206

