%NProcShared=48
%mem = 190GB
#n M062X/6-311++G(d,p) TD(NStates=1) EmpiricalDispersion=GD3 SP
 
 SP_50

1 1
    C    2.5062550000000003    1.358931    0.0
    C    3.7155080000000003    0.6766639999999999    0.0
    C    3.6883609999999996    -0.70628    0.0
    C    2.4516310000000003    -1.4010629999999997    0.0
    C    -2.4750309999999995    -1.4147129999999997    0.0
    C    -3.6814609999999997    -0.72488    0.0
    C    -3.6908330000000005    0.6660889999999999    0.0
    C    -2.4857050000000003    1.3598309999999998    0.0
    C    0.006474999999999999    1.4610689999999997    0.0
    C    -0.018300000000000004    -1.4295390000000001    0.0
    C    1.25958    0.6714150000000001    0.0
    C    1.2292710000000002    -0.7293790000000001    0.0
    C    -1.2650549999999998    0.68289    0.0
    C    -1.244271    -0.731179    0.0
    H    2.495071    2.4421719999999993    0.0
    H    4.651253    1.2146890000000001    0.0
    H    4.607612    -1.274874    0.0
    H    2.4615500000000003    -2.4836840000000007    0.0
    H    -0.016875    -2.5104410000000006    0.0
    H    -2.4725    -2.4969590000000004    0.0
    H    -4.611962    -1.2741989999999999    0.0
    H    -4.626277999999999    1.2060640000000002    0.0
    H    -2.488771    2.442847    0.0
    H    0.024    2.147537    -0.8615100000000001
    H    0.024    2.147537    0.8615100000000001

