%NProcShared=48
%mem = 190GB
#n M062X/6-311++G(d,p) TD(NStates=1) EmpiricalDispersion=GD3 SP
 
 SP_25

1 1
    C    2.4741049999999998    1.361631    0.0
    C    3.680233    0.6634389999999999    0.0
    C    3.677661    -0.7285799999999999    0.0
    C    2.482581    -1.418763    0.0
    C    -2.4435810000000004    -1.3960130000000002    0.0
    C    -3.689161    -0.6975799999999999    0.0
    C    -3.721358    0.6810639999999999    0.0
    C    -2.508355    1.360131    0.0
    C    -0.0109    1.450069    0.0
    C    0.0305    -1.429039    0.0
    C    1.266505    0.6865899999999999    0.0
    C    1.250271    -0.732529    0.0
    C    -1.25738    0.667465    0.0
    C    -1.225271    -0.729529    0.0
    H    2.4811710000000002    2.444697    0.0
    H    4.615078    1.205064    0.0
    H    4.612662    -1.270849    0.0
    H    2.4768999999999997    -2.501009    0.0
    H    0.028124999999999997    -2.510191    0.0
    H    -2.45865    -2.478884    0.0
    H    -4.605412    -1.2719740000000002    0.0
    H    -4.656703    1.219439    0.0
    H    -2.491671    2.443572    0.0
    H    -0.04    2.145037    -0.8587600000000001
    H    -0.04    2.145037    0.8587600000000001

