%NProcShared=48
%mem = 190GB
#n M062X/6-311++G(d,p) TD(NStates=1) EmpiricalDispersion=GD3 SP
 
 SP_-125

1 1
    C    2.5308050000000004    1.358631    0.0
    C    3.746983    0.691289    0.0
    C    3.6966609999999998    -0.67998    0.0
    C    2.420281    -1.382563    0.0
    C    -2.5060809999999996    -1.432613    0.0
    C    -3.671361    -0.7481800000000001    0.0
    C    -3.6565079999999996    0.652514    0.0
    C    -2.455455    1.361931    0.0
    C    0.024050000000000002    1.4544689999999998    0.0
    C    -0.0671    -1.4292390000000001    0.0
    C    1.252055    0.6560400000000002    0.0
    C    1.2098710000000001    -0.7274290000000001    0.0
    C    -1.27213    0.698115    0.0
    C    -1.2648709999999999    -0.734029    0.0
    H    2.500171    2.4422469999999996    0.0
    H    4.682828000000001    1.2273140000000002    0.0
    H    4.601362    -1.2738990000000001    0.0
    H    2.447400000000001    -2.4657590000000003    0.0
    H    -0.061875    -2.5102910000000005    0.0
    H    -2.4875499999999997    -2.514434    0.0
    H    -4.617312    -1.2714239999999997    0.0
    H    -4.591252999999998    1.195689    0.0
    H    -2.4770710000000005    2.4447219999999996    0.0
    H    0.088    2.1460369999999998    -0.8598600000000001
    H    0.088    2.1460369999999998    0.8598600000000001

