%NProcShared=48
%mem = 190GB
#n M062X/6-311++G(d,p) TD(NStates=1) EmpiricalDispersion=GD3 SP
 
 SP_0

1 1
    C    2.473155    1.361931    0.0
    C    3.6797579999999996    0.6636139999999999    0.0
    C    3.677361    -0.72808    0.0
    C    2.482531    -1.418663    0.0
    C    -2.443531    -1.3959130000000002    0.0
    C    -3.6888609999999997    -0.6970799999999999    0.0
    C    -3.7208829999999997    0.6812389999999999    0.0
    C    -2.5074050000000003    1.360431    0.0
    C    -0.010875    1.4478689999999999    0.0
    C    0.030500000000000003    -1.4289390000000002    0.0
    C    1.26643    0.686565    0.0
    C    1.2504709999999999    -0.732679    0.0
    C    -1.257305    0.66744    0.0
    C    -1.225471    -0.729679    0.0
    H    2.4800710000000006    2.445022    0.0
    H    4.614502999999999    1.205439    0.0
    H    4.612512000000001    -1.2702239999999998    0.0
    H    2.4770499999999998    -2.5009339999999995    0.0
    H    0.028125    -2.510141    0.0
    H    -2.4588    -2.4788089999999996    0.0
    H    -4.605262000000001    -1.271349    0.0
    H    -4.656128    1.219814    0.0
    H    -2.4905710000000005    2.4438969999999998    0.0
    H    -0.04    2.144537    -0.85821
    H    -0.04    2.144537    0.85821

