%NProcShared=48
%mem = 190GB
#n M062X/6-311++G(d,p) TD(NStates=1) EmpiricalDispersion=GD3 SP
 
 SP_25

1 1
    C    2.481905    1.361031    0.0
    C    3.688933    0.6667889999999999    0.0
    C    3.680261    -0.72288    0.0
    C    2.474831    -1.414313    0.0
    C    -2.4514310000000004    -1.4006630000000002    0.0
    C    -3.6871609999999997    -0.7042799999999999    0.0
    C    -3.713608    0.6773639999999999    0.0
    C    -2.502455    1.360131    0.0
    C    -0.00655    1.452269    0.0
    C    0.018299999999999997    -1.429139    0.0
    C    1.264755    0.68279    0.0
    C    1.2450709999999998    -0.731779    0.0
    C    -1.25928    0.671315    0.0
    C    -1.2300710000000001    -0.7299789999999999    0.0
    H    2.4843710000000003    2.444147    0.0
    H    4.623977999999999    1.207564    0.0
    H    4.611362    -1.271699    0.0
    H    2.4730999999999996    -2.496659    0.0
    H    0.016875    -2.5102409999999997    0.0
    H    -2.4621500000000003    -2.483384    0.0
    H    -4.607012    -1.2723740000000001    0.0
    H    -4.648953000000001    1.216189    0.0
    H    -2.490671    2.443472    0.0
    H    -0.024    2.145537    -0.85931
    H    -0.024    2.145537    0.85931

