%NProcShared=48
%mem = 190GB
#n M062X/6-311++G(d,p) TD(NStates=1) EmpiricalDispersion=GD3 SP
 
 SP_0

1 1
    C    2.496555    1.360131    0.0
    C    3.705858    0.6736639999999999    0.0
    C    3.685161    -0.71098    0.0
    C    2.4592810000000003    -1.405313    0.0
    C    -2.4670810000000003    -1.4098629999999999    0.0
    C    -3.682861    -0.7171799999999999    0.0
    C    -3.697633    0.6701389999999999    0.0
    C    -2.489705    1.360431    0.0
    C    0.002175    1.454469    0.0
    C    -0.0060999999999999995    -1.429239    0.0
    C    1.26118    0.675165    0.0
    C    1.234871    -0.730429    0.0
    C    -1.263005    0.67899    0.0
    C    -1.239871    -0.731029    0.0
    H    2.489671    2.443372    0.0
    H    4.641203    1.212939    0.0
    H    4.608612    -1.272774    0.0
    H    2.46565    -2.487884    0.0
    H    -0.005625    -2.510291    0.0
    H    -2.4693    -2.492309    0.0
    H    -4.610062    -1.272549    0.0
    H    -4.632878    1.210064    0.0
    H    -2.487571    2.443597    0.0
    H    0.008    2.1460369999999998    -0.8598600000000001
    H    0.008    2.1460369999999998    0.8598600000000001

