%NProcShared=48
%mem = 190GB
#n M062X/6-311++G(d,p) TD(NStates=1) EmpiricalDispersion=GD3 SP
 
 SP_-75

1 1
    C    2.482005    1.361931    -0.0
    C    3.6913829999999996    0.6691639999999999    -0.0
    C    3.680361    -0.7180299999999998    -0.0
    C    2.470756    -1.4116880000000003    -0.0
    C    -2.4551560000000006    -1.4025880000000004    -0.0
    C    -3.684961    -0.7056299999999998    -0.0
    C    -3.7078329999999995    0.6762139999999999    -0.0
    C    -2.495705    1.361331    -0.0
    C    -0.004274999999999999    1.444569    -0.0
    C    0.012200000000000003    -1.428789    0.0
    C    1.26358    0.6807899999999999    -0.0
    C    1.2432709999999998    -0.732004    -0.0
    C    -1.25993    0.6731399999999998    -0.0
    C    -1.233271    -0.7308039999999999    -0.0
    H    2.4815710000000006    2.4451720000000003    -0.0
    H    4.626128    1.210314    -0.0
    H    4.610112000000001    -1.2696239999999999    -0.0
    H    2.4717999999999996    -2.4941839999999993    -0.0
    H    0.01125    -2.5100659999999997    0.0
    H    -2.4644999999999997    -2.4853339999999995    -0.0
    H    -4.6072120000000005    -1.2700740000000001    -0.0
    H    -4.642778    1.2160639999999998    -0.0
    H    -2.4857710000000006    2.444722    -0.0
    H    -0.016    2.143787    -0.8573850000000001
    H    -0.016    2.143787    0.8573850000000001

