%NProcShared=48
%mem = 190GB
#n M062X/6-311++G(d,p) TD(NStates=1) EmpiricalDispersion=GD3 SP
 
 SP_-75

1 1
    C    2.5210049999999997    1.358931    0.0
    C    3.7348830000000004    0.6859139999999999    0.0
    C    3.693361    -0.6895299999999999    0.0
    C    2.432006000000001    -1.3894379999999997    0.0
    C    -2.4944059999999997    -1.425838    0.0
    C    -3.674961    -0.7391300000000001    0.0
    C    -3.669083    0.6577139999999999    0.0
    C    -2.4662049999999995    1.361331    0.0
    C    0.017474999999999997    1.4555690000000001    0.0
    C    -0.0488    -1.4292889999999998    0.0
    C    1.25483    0.66179    0.0
    C    1.217271    -0.7282540000000001    0.0
    C    -1.26943    0.6923900000000001    0.0
    C    -1.257271    -0.733054    0.0
    H    2.4975709999999998    2.4424219999999996    0.0
    H    4.670628000000001    1.222814    0.0
    H    4.603612    -1.2738740000000002    0.0
    H    2.4528000000000003    -2.4724340000000002    0.0
    H    -0.045    -2.510316    0.0
    H    -2.4819999999999998    -2.5078340000000003    0.0
    H    -4.615212    -1.272074    0.0
    H    -4.604028    1.199814    0.0
    H    -2.480771    2.4442220000000003    0.0
    H    0.064    2.1462869999999996    -0.8601350000000001
    H    0.064    2.1462869999999996    0.8601350000000001

