%NProcShared=16
%mem = 64GB
%Chk=check_sp_6
#n M062X/cc-pvtz TD EmpiricalDispersion=GD3 SP
 
 SP_6

1 1
    C    2.50206    1.36838    0.0
    C    3.71194    0.68472    0.0
    C    3.68702    -0.69826    0.0
    C    2.4539    -1.39356    0.0
    C    -2.47262    -1.40448    0.0
    C    -3.6814999999999998    -0.71314    0.0
    C    -3.6921999999999997    0.67626    0.0
    C    -2.48562    1.3691    0.0
    C    0.005220000000000001    1.46474    0.0
    C    -0.014640000000000004    -1.42062    0.0
    C    1.26    0.68114    0.0
    C    1.23126    -0.7212    0.0
    C    -1.26438    0.69032    0.0
    C    -1.24326    -0.72264    0.0
    H    2.49194    2.4516400000000003    0.0
    H    4.64748    1.2234    0.0
    H    4.60774    -1.26472    0.0
    H    2.46294    -2.47618    0.0
    H    -0.013500000000000002    -2.5016599999999998    0.0
    H    -2.4717    -2.4868    0.0
    H    -4.61122    -1.26418    0.0
    H    -4.6274999999999995    1.2165    0.0
    H    -2.4869    2.4521800000000002    0.0
    H    0.019200000000000002    2.1551    -0.86026
    H    0.019200000000000002    2.1551    0.86026

