%NProcShared=16
%mem = 64GB
%Chk=check_sp_16
#n M062X/cc-pvtz TD EmpiricalDispersion=GD3 SP
 
 SP_16

1 1
    C    2.5176600000000002    1.3671799999999998    0.0
    C    3.72934    0.69142    0.0
    C    3.69222    -0.68686    0.0
    C    2.4384    -1.3846599999999998    0.0
    C    -2.48832    -1.4137799999999998    0.0
    C    -3.6774999999999998    -0.7265400000000001    0.0
    C    -3.6767    0.66886    0.0
    C    -2.47382    1.3691    0.0
    C    0.01392    1.46914    0.0
    C    -0.039040000000000005    -1.42082    0.0
    C    1.2565    0.67354    0.0
    C    1.22086    -0.7197    0.0
    C    -1.26818    0.6980200000000001    0.0
    C    -1.25286    -0.72354    0.0
    H    2.49834    2.45054    0.0
    H    4.66528    1.2284000000000002    0.0
    H    4.60514    -1.26642    0.0
    H    2.4553400000000005    -2.46748    0.0
    H    -0.036    -2.50176    0.0
    H    -2.4787    -2.4958000000000005    0.0
    H    -4.61442    -1.26498    0.0
    H    -4.611999999999999    1.21    0.0
    H    -2.4848999999999997    2.4519800000000003    0.0
    H    0.0512    2.1561    -0.86136
    H    0.0512    2.1561    0.86136

