%NProcShared=16
%mem = 64GB
%Chk=check_sp_4
#n M062X/cc-pvtz TD EmpiricalDispersion=GD3 SP
 
 SP_4

1 1
    C    2.49894    1.36862    0.0
    C    3.70846    0.68338    0.0
    C    3.68598    -0.7005399999999999    0.0
    C    2.4570000000000003    -1.39534    0.0
    C    -2.46948    -1.40262    0.0
    C    -3.6823    -0.71046    0.0
    C    -3.6953    0.67774    0.0
    C    -2.4879800000000003    1.3691    0.0
    C    0.00348    1.46386    0.0
    C    -0.009760000000000001    -1.4205800000000002    0.0
    C    1.2607    0.68266    0.0
    C    1.23334    -0.7215    0.0
    C    -1.26362    0.68878    0.0
    C    -1.24134    -0.72246    0.0
    H    2.49066    2.45186    0.0
    H    4.6439200000000005    1.2224    0.0
    H    4.6082600000000005    -1.26438    0.0
    H    2.46446    -2.47792    0.0
    H    -0.009    -2.50164    0.0
    H    -2.4703    -2.485    0.0
    H    -4.61058    -1.26402    0.0
    H    -4.6306    1.2178    0.0
    H    -2.4873000000000003    2.45222    0.0
    H    0.0128    2.1549    -0.86004
    H    0.0128    2.1549    0.86004

