%NProcShared=16
%mem = 64GB
%Chk=check_sp_17
#n M062X/cc-pvtz TD EmpiricalDispersion=GD3 SP
 
 SP_17

1 1
    C    2.5192200000000002    1.36706    0.0
    C    3.7310800000000004    0.6920900000000001    0.0
    C    3.6927399999999997    -0.68572    0.0
    C    2.43685    -1.3837699999999997    0.0
    C    -2.48989    -1.41471    0.0
    C    -3.6771    -0.7278800000000001    0.0
    C    -3.67515    0.66812    0.0
    C    -2.47264    1.3691    0.0
    C    0.014790000000000001    1.4695799999999999    0.0
    C    -0.04148000000000001    -1.42084    0.0
    C    1.2561499999999999    0.67278    0.0
    C    1.2198200000000001    -0.71955    0.0
    C    -1.2685600000000001    0.69879    0.0
    C    -1.2538200000000002    -0.72363    0.0
    H    2.49898    2.45043    0.0
    H    4.66706    1.2289    0.0
    H    4.60488    -1.26659    0.0
    H    2.4545800000000004    -2.46661    0.0
    H    -0.03825    -2.50177    0.0
    H    -2.4794    -2.4967000000000006    0.0
    H    -4.614739999999999    -1.2650599999999999    0.0
    H    -4.610449999999999    1.20935    0.0
    H    -2.4846999999999997    2.45196    0.0
    H    0.054400000000000004    2.1562    -0.8614700000000001
    H    0.054400000000000004    2.1562    0.8614700000000001

