%NProcShared=16
%mem = 64GB
%Chk=check_sp_8
#n M062X/cc-pvtz TD EmpiricalDispersion=GD3 SP
 
 SP_8

1 1
    C    2.50518    1.36814    0.0
    C    3.71542    0.68606    0.0
    C    3.6880599999999997    -0.6959799999999999    0.0
    C    2.4508    -1.39178    0.0
    C    -2.4757599999999997    -1.40634    0.0
    C    -3.6807    -0.71582    0.0
    C    -3.6891    0.67478    0.0
    C    -2.48326    1.3691    0.0
    C    0.00696    1.46562    0.0
    C    -0.019520000000000003    -1.42066    0.0
    C    1.2592999999999999    0.67962    0.0
    C    1.2291800000000002    -0.7209    0.0
    C    -1.26514    0.69186    0.0
    C    -1.2451800000000002    -0.72282    0.0
    H    2.49322    2.45142    0.0
    H    4.65104    1.2244    0.0
    H    4.60722    -1.26506    0.0
    H    2.46142    -2.47444    0.0
    H    -0.018    -2.50168    0.0
    H    -2.4731    -2.4886    0.0
    H    -4.61186    -1.26434    0.0
    H    -4.6244    1.2152    0.0
    H    -2.4865    2.45214    0.0
    H    0.0256    2.1553    -0.86048
    H    0.0256    2.1553    0.86048

