%NProcShared=16
%mem = 64GB
%Chk=check_sp_13
#n M062X/cc-pvtz TD EmpiricalDispersion=GD3 SP
 
 SP_13

1 1
    C    2.51298    1.36754    0.0
    C    3.72412    0.6894100000000001    0.0
    C    3.69066    -0.69028    0.0
    C    2.4430500000000004    -1.38733    0.0
    C    -2.4836099999999997    -1.41099    0.0
    C    -3.6787    -0.72252    0.0
    C    -3.68135    0.67108    0.0
    C    -2.47736    1.3691    0.0
    C    0.011309999999999999    1.46782    0.0
    C    -0.031720000000000005    -1.42076    0.0
    C    1.25755    0.6758200000000001    0.0
    C    1.22398    -0.7201500000000001    0.0
    C    -1.26704    0.69571    0.0
    C    -1.24998    -0.72327    0.0
    H    2.4964199999999996    2.45087    0.0
    H    4.659940000000001    1.2269    0.0
    H    4.60592    -1.26591    0.0
    H    2.4576200000000004    -2.4700900000000003    0.0
    H    -0.029249999999999998    -2.5017300000000002    0.0
    H    -2.4766    -2.4931    0.0
    H    -4.61346    -1.26474    0.0
    H    -4.61665    1.21195    0.0
    H    -2.4855    2.45204    0.0
    H    0.041600000000000005    2.1558    -0.86103
    H    0.041600000000000005    2.1558    0.86103

