%NProcShared=16
%mem = 64GB
%Chk=check_sp_12
#n M062X/cc-pvtz TD EmpiricalDispersion=GD3 SP
 
 SP_12

1 1
    C    2.51142    1.3676599999999999    0.0
    C    3.7223800000000002    0.68874    0.0
    C    3.69014    -0.69142    0.0
    C    2.4446000000000003    -1.3882199999999998    0.0
    C    -2.48204    -1.4100599999999999    0.0
    C    -3.6791    -0.72118    0.0
    C    -3.6829    0.67182    0.0
    C    -2.47854    1.3691    0.0
    C    0.010440000000000001    1.46738    0.0
    C    -0.029280000000000007    -1.4207400000000001    0.0
    C    1.2579    0.6765800000000001    0.0
    C    1.22502    -0.7203    0.0
    C    -1.2666600000000001    0.69494    0.0
    C    -1.24902    -0.7231799999999999    0.0
    H    2.49578    2.45098    0.0
    H    4.6581600000000005    1.2264000000000002    0.0
    H    4.60618    -1.26574    0.0
    H    2.4583800000000005    -2.4709600000000003    0.0
    H    -0.027000000000000003    -2.50172    0.0
    H    -2.4758999999999998    -2.4922000000000004    0.0
    H    -4.61314    -1.26466    0.0
    H    -4.6182    1.2126    0.0
    H    -2.4857    2.4520600000000004    0.0
    H    0.038400000000000004    2.1557    -0.86092
    H    0.038400000000000004    2.1557    0.86092

