%NProcShared=16
%mem = 64GB
%Chk=check_sp_5
#n M062X/cc-pvtz TD EmpiricalDispersion=GD3 SP
 
 SP_5

1 1
    C    2.5005    1.3685    0.0
    C    3.7102    0.68405    0.0
    C    3.6864999999999997    -0.6994    0.0
    C    2.45545    -1.39445    0.0
    C    -2.47105    -1.40355    0.0
    C    -3.6818999999999997    -0.7118    0.0
    C    -3.6937499999999996    0.677    0.0
    C    -2.4868    1.3691    0.0
    C    0.00435    1.4643    0.0
    C    -0.0122    -1.4206    0.0
    C    1.2603499999999999    0.6819    0.0
    C    1.2323    -0.7213499999999999    0.0
    C    -1.264    0.68955    0.0
    C    -1.2423000000000002    -0.72255    0.0
    H    2.4913    2.45175    0.0
    H    4.6457    1.2229    0.0
    H    4.6080000000000005    -1.26455    0.0
    H    2.4637000000000002    -2.47705    0.0
    H    -0.01125    -2.5016499999999997    0.0
    H    -2.471    -2.4859    0.0
    H    -4.6109    -1.2641    0.0
    H    -4.629049999999999    1.21715    0.0
    H    -2.4871    2.4522000000000004    0.0
    H    0.016    2.1550000000000002    -0.86015
    H    0.016    2.1550000000000002    0.86015

