%NProcShared=16
%mem = 64GB
%Chk=check_sp_2
#n M062X/cc-pvtz TD EmpiricalDispersion=GD3 SP
 
 SP_2

1 1
    C    2.49582    1.36886    0.0
    C    3.70498    0.68204    0.0
    C    3.68494    -0.70282    0.0
    C    2.4601    -1.39712    0.0
    C    -2.46634    -1.40076    0.0
    C    -3.6831    -0.70778    0.0
    C    -3.6984    0.6792199999999999    0.0
    C    -2.49034    1.3691    0.0
    C    0.00174    1.46298    0.0
    C    -0.004880000000000001    -1.4205400000000001    0.0
    C    1.2614    0.68418    0.0
    C    1.23542    -0.7218    0.0
    C    -1.26286    0.68724    0.0
    C    -1.23942    -0.7222799999999999    0.0
    H    2.48938    2.45208    0.0
    H    4.64036    1.2214    0.0
    H    4.60878    -1.26404    0.0
    H    2.46598    -2.47966    0.0
    H    -0.0045    -2.50162    0.0
    H    -2.4688999999999997    -2.4832    0.0
    H    -4.60994    -1.26386    0.0
    H    -4.6337    1.2190999999999999    0.0
    H    -2.4877000000000002    2.4522600000000003    0.0
    H    0.0064    2.1547    -0.85982
    H    0.0064    2.1547    0.85982

