%NProcShared=16
%mem = 64GB
%Chk=check_sp_9
#n M062X/cc-pvtz TD EmpiricalDispersion=GD3 SP
 
 SP_9

1 1
    C    2.50674    1.36802    0.0
    C    3.7171600000000002    0.6867300000000001    0.0
    C    3.68858    -0.69484    0.0
    C    2.44925    -1.39089    0.0
    C    -2.47733    -1.40727    0.0
    C    -3.6803    -0.71716    0.0
    C    -3.68755    0.67404    0.0
    C    -2.4820800000000003    1.3691    0.0
    C    0.00783    1.46606    0.0
    C    -0.02196    -1.4206800000000002    0.0
    C    1.25895    0.67886    0.0
    C    1.22814    -0.72075    0.0
    C    -1.26552    0.69263    0.0
    C    -1.24614    -0.7229099999999999    0.0
    H    2.4938599999999997    2.45131    0.0
    H    4.65282    1.2249    0.0
    H    4.60696    -1.26523    0.0
    H    2.4606600000000003    -2.47357    0.0
    H    -0.02025    -2.50169    0.0
    H    -2.4737999999999998    -2.4895    0.0
    H    -4.6121799999999995    -1.2644199999999999    0.0
    H    -4.62285    1.21455    0.0
    H    -2.4863    2.4521200000000003    0.0
    H    0.028800000000000003    2.1554    -0.86059
    H    0.028800000000000003    2.1554    0.86059

