%NProcShared=16
%mem = 64GB
%Chk=check_sp_3
#n M062X/cc-pvtz TD EmpiricalDispersion=GD3 SP
 
 SP_3

1 1
    C    2.49738    1.3687399999999998    0.0
    C    3.70672    0.68271    0.0
    C    3.68546    -0.70168    0.0
    C    2.4585500000000002    -1.39623    0.0
    C    -2.46791    -1.40169    0.0
    C    -3.6827    -0.70912    0.0
    C    -3.69685    0.67848    0.0
    C    -2.48916    1.3691    0.0
    C    0.0026100000000000003    1.46342    0.0
    C    -0.007320000000000002    -1.42056    0.0
    C    1.26105    0.68342    0.0
    C    1.23438    -0.72165    0.0
    C    -1.26324    0.68801    0.0
    C    -1.24038    -0.72237    0.0
    H    2.4900200000000003    2.45197    0.0
    H    4.64214    1.2219    0.0
    H    4.60852    -1.26421    0.0
    H    2.46522    -2.47879    0.0
    H    -0.006750000000000001    -2.50163    0.0
    H    -2.4696    -2.4840999999999998    0.0
    H    -4.61026    -1.26394    0.0
    H    -4.63215    1.21845    0.0
    H    -2.4875000000000003    2.45224    0.0
    H    0.009600000000000001    2.1548000000000003    -0.8599300000000001
    H    0.009600000000000001    2.1548000000000003    0.8599300000000001

