%NProcShared=16
%mem = 64GB
%Chk=check_sp_1
#n M062X/cc-pvtz TD EmpiricalDispersion=GD3 SP
 
 SP_1

1 1
    C    2.49426    1.36898    0.0
    C    3.7032399999999996    0.68137    0.0
    C    3.68442    -0.7039599999999999    0.0
    C    2.46165    -1.39801    0.0
    C    -2.46477    -1.3998300000000001    0.0
    C    -3.6835    -0.70644    0.0
    C    -3.69995    0.67996    0.0
    C    -2.49152    1.3691    0.0
    C    0.00087    1.46254    0.0
    C    -0.0024400000000000003    -1.42052    0.0
    C    1.26175    0.68494    0.0
    C    1.2364600000000001    -0.72195    0.0
    C    -1.26248    0.68647    0.0
    C    -1.2384600000000001    -0.72219    0.0
    H    2.48874    2.4521900000000003    0.0
    H    4.63858    1.2208999999999999    0.0
    H    4.60904    -1.26387    0.0
    H    2.4667399999999997    -2.48053    0.0
    H    -0.00225    -2.50161    0.0
    H    -2.4682    -2.4823    0.0
    H    -4.6096200000000005    -1.2637800000000001    0.0
    H    -4.63525    1.21975    0.0
    H    -2.4879000000000002    2.45228    0.0
    H    0.0032    2.1546000000000003    -0.85971
    H    0.0032    2.1546000000000003    0.85971

