%NProcShared=16
%mem = 64GB
%Chk=check_sp_19
#n M062X/cc-pvtz TD EmpiricalDispersion=GD3 SP
 
 SP_19

1 1
    C    2.5223400000000002    1.3668199999999997    0.0
    C    3.7345600000000005    0.6934300000000001    0.0
    C    3.69378    -0.68344    0.0
    C    2.4337500000000003    -1.3819899999999998    0.0
    C    -2.4930299999999996    -1.4165699999999997    0.0
    C    -3.6763    -0.7305600000000001    0.0
    C    -3.67205    0.66664    0.0
    C    -2.4702800000000003    1.3691    0.0
    C    0.01653    1.4704599999999999    0.0
    C    -0.046360000000000005    -1.4208800000000001    0.0
    C    1.25545    0.6712600000000001    0.0
    C    1.21774    -0.7192500000000001    0.0
    C    -1.26932    0.70033    0.0
    C    -1.25574    -0.72381    0.0
    H    2.50026    2.4502099999999998    0.0
    H    4.67062    1.2299000000000002    0.0
    H    4.60436    -1.2669300000000001    0.0
    H    2.4530600000000007    -2.4648700000000003    0.0
    H    -0.04275    -2.50179    0.0
    H    -2.4808    -2.4985000000000004    0.0
    H    -4.615379999999999    -1.2652199999999998    0.0
    H    -4.607349999999999    1.20805    0.0
    H    -2.4842999999999997    2.4519200000000003    0.0
    H    0.06080000000000001    2.1564    -0.8616900000000001
    H    0.06080000000000001    2.1564    0.8616900000000001

