%NProcShared=16
%mem = 64GB
%Chk=check_sp_20
#n M062X/cc-pvtz TD EmpiricalDispersion=GD3 SP
 
 SP_20

1 1
    C    2.5239000000000003    1.3666999999999998    0.0
    C    3.7363000000000004    0.6941    0.0
    C    3.6942999999999997    -0.6823    0.0
    C    2.4322000000000004    -1.3810999999999998    0.0
    C    -2.4945999999999997    -1.4174999999999998    0.0
    C    -3.6759    -0.7319000000000001    0.0
    C    -3.6705    0.6659    0.0
    C    -2.4691    1.3691    0.0
    C    0.0174    1.4708999999999999    0.0
    C    -0.0488    -1.4209    0.0
    C    1.2550999999999999    0.6705000000000001    0.0
    C    1.2167000000000001    -0.7191000000000001    0.0
    C    -1.2697    0.7011000000000001    0.0
    C    -1.2567000000000002    -0.7239    0.0
    H    2.5008999999999997    2.4501    0.0
    H    4.6724000000000006    1.2304000000000002    0.0
    H    4.6041    -1.2671000000000001    0.0
    H    2.4523000000000006    -2.4640000000000004    0.0
    H    -0.045    -2.5018000000000002    0.0
    H    -2.4815    -2.4994000000000005    0.0
    H    -4.6156999999999995    -1.2652999999999999    0.0
    H    -4.6057999999999995    1.2074    0.0
    H    -2.4840999999999998    2.4519    0.0
    H    0.064    2.1565    -0.8618
    H    0.064    2.1565    0.8618

