%NProcShared=16
%mem = 64GB
#n M062X/cc-pvtz TD(NStates=1) EmpiricalDispersion=GD3 SP
 
 SP_3

1 1
    C    2.4927    1.3301    0.006
    C    3.7015    0.6627    0.051000000000000004
    C    3.6839    -0.6900999999999999    0.051000000000000004
    C    2.4632    -1.3629    0.006
    C    -2.4632    -1.4349    0.006
    C    -3.6839    -0.7201    0.051000000000000004
    C    -3.7015    0.6987    0.051000000000000004
    C    -2.4927    1.4081    0.006
    C    0.0    1.4621    -0.045
    C    0.0    -1.4205    -0.045
    C    1.2621    0.6767    -0.039
    C    1.2375    -0.7161    -0.039
    C    -1.2621    0.6947    -0.039
    C    -1.2375    -0.7281    -0.039
    H    2.4881    2.3653    0.006
    H    4.6368    1.1874    0.078
    H    4.6093    -1.2337    0.078
    H    2.4675    -2.4004    0.006
    H    0.0    -2.5016    -0.048
    H    -2.4675    -2.5624    0.006
    H    -4.6093    -1.2937    0.078
    H    -4.6368    1.2533999999999998    0.078
    H    -2.4881    2.5393000000000003    0.006
    H    0.0    2.1545    -0.9046000000000001
    H    0.0    2.1545    0.8146

