%NProcShared=16
%mem = 64GB
%Chk=check_sp_3
#n M062X/cc-pvtz TD EmpiricalDispersion=GD3 SP pop=reg
 
 SP_3

1 1
    C    2.5102400974266343    1.3676574843791642    0.0
    C    3.721258882110812    0.6889453412893483    0.0
    C    3.690696151499896    -0.6909579895762386    0.0
    C    2.4450368693180136    -1.3888789522935236    0.0
    C    -2.48174953478042    -1.4094007326245965    0.0
    C    -3.678196521661879    -0.7206879193935265    0.0
    C    -3.6830137460392667    0.6724479620361871    0.0
    C    -2.478444663744855    1.3693898424590603    0.0
    C    0.009887766886789657    1.4664875018508097    0.0
    C    -0.028810447451804902    -1.4210563590867362    0.0
    C    1.2568762515916965    0.6757023231366046    0.0
    C    1.225876526696082    -0.7209206751754568    0.0
    C    -1.2674436358790606    0.6950647561372857    0.0
    C    -1.248250597589505    -0.723186066510705    0.0
    H    2.4941199274482515    2.450957439367467    0.0
    H    4.656605488761882    1.2273260839823505    0.0
    H    4.607327754449346    -1.264389594894726    0.0
    H    2.4592213553851163    -2.4716787947525836    0.0
    H    -0.02671829192454617    -2.502059729929817    0.0
    H    -2.4760119029287218    -2.4914543285261628    0.0
    H    -4.611978469602298    -1.2645495048713316    0.0
    H    -4.618480285172791    1.2130008152447511    0.0
    H    -2.4851516429269447    2.4523433258313836    0.0
    H    0.038898101809351764    2.155096314075039    -0.8607626731617756
    H    0.038898101809351764    2.155096314075039    0.8607626731617756

