%NProcShared=16
%mem = 64GB
%Chk=check_sp_9
#n M062X/cc-pvtz TD EmpiricalDispersion=GD3 SP pop=reg
 
 SP_9

1 1
    C    2.498513365808878    1.368625828126388    0.0
    C    3.708092960703604    0.6834284470964495    0.0
    C    3.686138717166632    -0.7004193298587462    0.0
    C    2.457118956439338    -1.3955329840978412    0.0
    C    -2.4693565115934732    -1.4023735775415322    0.0
    C    -3.681972173887293    -0.7103293064645089    0.0
    C    -3.695344582013089    0.677929320678729    0.0
    C    -2.4879148879149517    1.3692032808196868    0.0
    C    0.0032959222955965444    1.4635291672836033    0.0
    C    -0.009603482483934944    -1.4206921196955786    0.0
    C    1.2603320838638987    0.6824007743788681    0.0
    C    1.2336055088986941    -0.7217202250584855    0.0
    C    -1.26385454529302    0.6888549187124285    0.0
    C    -1.2410635325298351    -0.7224753555035683    0.0
    H    2.4900866424827504    2.451872479789156    0.0
    H    4.643368496253961    1.2226886946607836    0.0
    H    4.608615918149782    -1.2639098649649088    0.0
    H    2.464773785128372    -2.478146264917528    0.0
    H    -0.008906097308182035    -2.501739909976606    0.0
    H    -2.4703706343095737    -2.484738109508721    0.0
    H    -4.610166156534099    -1.263963168290444    0.0
    H    -4.630660095057597    1.2179136050815837    0.0
    H    -2.4870972143089816    2.4523344419437945    0.0
    H    0.012966033936450556    2.154678771358346    -0.8599808910539252
    H    0.012966033936450556    2.154678771358346    0.8599808910539252

