%NProcShared=16
%mem = 64GB
%Chk=check_sp_14
#n M062X/cc-pvtz TD EmpiricalDispersion=GD3 SP 
 
 SP_14

1 1
    C    2.488741089460748    1.3694327812490747    0.0
    C    3.6971213595309305    0.6788310352690337    0.0
    C    3.6823408552222454    -0.7083037800941693    0.0
    C    2.4671873623737746    -1.401078010601439    0.0
    C    -2.4590289922710173    -1.3965176149723117    -0.0
    C    -3.6851185507418047    -0.7016971290236608    -0.0
    C    -3.7056202786579404    0.682497119547514    -0.0
    C    -2.495806741390032    1.3690478127868755    -0.0
    C    -0.0021972815303977163    1.461063888477598    0.0
    C    0.006402321655956688    -1.420388586869614    0.0
    C    1.2632119440907341    0.6879828170807545    0.0
    C    1.2400463274008708    -0.7223865166276763    0.0
    C    -1.2608636364713197    0.6836800541917142    -0.0
    C    -1.2350743116467766    -0.7218830963309544    -0.0
    H    2.4867255716781664    2.452635013473896    0.0
    H    4.632337669164026    1.2188242035594776    0.0
    H    4.609689387900145    -1.2635100900233942    0.0
    H    2.469400809914419    -2.483535823388315    0.0
    H    0.005937398205454745    -2.5014733933489297    0.0
    H    -2.465669577126951    -2.4791412603275194    -0.0
    H    -4.608655895643934    -1.2634745544730375    -0.0
    H    -4.640809936628269    1.2220075966122774    -0.0
    H    -2.488718523794012    2.4523270387041367    -0.0
    H    -0.00864402262430045    2.1543308190944357    -0.8593294059640498
    H    -0.00864402262430045    2.1543308190944357    0.8593294059640498

