%NProcShared=16
%mem = 64GB
%Chk=check_sp_22
#n M062X/cc-pvtz TD EmpiricalDispersion=GD3 SP
 
 SP_22

1 1
    C    2.4731054473037393    1.370723906245373    0.0
    C    3.679566797654653    0.6714751763451685    0.0
    C    3.6762642761112265    -0.7209189004708462    0.0
    C    2.4832968118688736    -1.409950053007196    0.0
    C    -2.4425049613550884    -1.3871480748615592    -0.0
    C    -3.6901527537090235    -0.687885645118304    -0.0
    C    -3.722061393289703    0.68980559773757    -0.0
    C    -2.5084337069501608    1.3687990639343777    -0.0
    C    -0.010986407651988534    1.4571194423879892    0.0
    C    0.0320116082797833    -1.4199029343480707    0.0
    C    1.2678197204536705    0.6969140854037726    0.0
    C    1.2503516370043535    -0.7234525831383813    0.0
    C    -1.2560781823565992    0.6754002709585714    -0.0
    C    -1.2254915582338832    -0.7209354816547721    -0.0
    H    2.4813478583908317    2.453855067369481    0.0
    H    4.614688345820131    1.212641017797388    0.0
    H    4.611406939500726    -1.2628704501169712    0.0
    H    2.476804049572093    -2.492159116941574    0.0
    H    0.029686991027273592    -2.501046966744648    0.0
    H    -2.4581478856347543    -2.470186301637597    -0.0
    H    -4.606239478219669    -1.2626927723651873    -0.0
    H    -4.657049683141343    1.2285579830613877    -0.0
    H    -2.4913126189700616    2.4523151935206844    -0.0
    H    -0.043220113121502056    2.1537740954721785    -0.8582870298202493
    H    -0.043220113121502056    2.1537740954721785    0.8582870298202493

