%NProcShared=16
%mem = 64GB
%Chk=check_sp_5
#n M062X/cc-pvtz TD EmpiricalDispersion=GD3 SP pop=reg
 
 SP_5

1 1
    C    2.506331186887382    1.367980265628239    0.0
    C    3.7168702416417427    0.687106376558382    0.0
    C    3.6891770067221414    -0.6941117696704078    0.0
    C    2.4490642316917883    -1.3910969628949628    0.0
    C    -2.4776185270514377    -1.4070583475969085    0.0
    C    -3.679455072403684    -0.7172350484171873    0.0
    C    -3.6871240246972077    0.674275081583701    0.0
    C    -2.4816014051348874    1.3693276552459357    0.0
    C    0.007690485356391953    1.4655013903284075    0.0
    C    -0.02240812579584825    -1.4209349459563505    0.0
    C    1.2580281956824306    0.6779351402173591    0.0
    C    1.2284528540969528    -0.7211871918031331    0.0
    C    -1.2662472723503806    0.692994810329    0.0
    C    -1.2458549092362818    -0.7229491628416596    0.0
    H    2.4927754991264175    2.4512624528413633    0.0
    H    4.652193157925908    1.2257802875418282    0.0
    H    4.607757142349492    -1.2642296849181203    0.0
    H    2.461072165299535    -2.4738346181408986    0.0
    H    -0.020780893719091458    -2.5019531232787466    0.0
    H    -2.4741314800556724    -2.4892155888536824    0.0
    H    -4.611374365246232    -1.264354059344369    0.0
    H    -4.62254022180106    1.2146384118570286    0.0
    H    -2.485800166720957    2.452340364535521    0.0
    H    0.03025407918505136    2.154957133169475    -0.8605020791258254
    H    0.03025407918505136    2.154957133169475    0.8605020791258254

