%NProcShared=16
%mem = 64GB
%Chk=check_sp_7
#n M062X/cc-pvtz TD EmpiricalDispersion=GD3 SP pop=reg
 
 SP_7

1 1
    C    2.50242227634813    1.3683030468773136    0.0
    C    3.7124816011726733    0.6852674118274157    0.0
    C    3.6876578619443867    -0.697265549764577    0.0
    C    2.453091594065563    -1.393314973496402    0.0
    C    -2.4734875193224557    -1.4047159625692203    0.0
    C    -3.6807136231454884    -0.713782177440848    0.0
    C    -3.6912343033551482    0.676102201131215    0.0
    C    -2.4847581465249196    1.3692654680328111    0.0
    C    0.005493203825994249    1.4645152788060054    0.0
    C    -0.016005804139891597    -1.4208135328259646    0.0
    C    1.2591801397731648    0.6801679572981136    0.0
    C    1.2310291814978234    -0.7214537084308092    0.0
    C    -1.2650509088217003    0.6909248645207142    0.0
    C    -1.2434592208830584    -0.722712259172614    0.0
    H    2.491431070804584    2.4515674663152596    0.0
    H    4.647780827089934    1.2242344911013059    0.0
    H    4.608186530249637    -1.2640697749415144    0.0
    H    2.462922975213954    -2.475990441529213    0.0
    H    -0.014843495513636748    -2.501846516627676    0.0
    H    -2.472251057182623    -2.4869768491812017    0.0
    H    -4.610770260890165    -1.2641586138174066    0.0
    H    -4.626600158429328    1.216276008469306    0.0
    H    -2.4864486905149694    2.4523374032396577    0.0
    H    0.02161005656075096    2.1548179522639104    -0.8602414850898753
    H    0.02161005656075096    2.1548179522639104    0.8602414850898753

