%NProcShared=16
%mem = 64GB
%Chk=check_sp_11
#n M062X/cc-pvtz TD EmpiricalDispersion=GD3 SP
 
 SP_11

1 1
    C    2.494604455269626    1.3689486093754628    0.0
    C    3.7037043202345346    0.6815894823654831    0.0
    C    3.6846195723888773    -0.7035731099529154    0.0
    C    2.4611463188131126    -1.3977509946992803    0.0
    C    -2.465225503864491    -1.400031192513844    0.0
    C    -3.6832307246290976    -0.7068764354881697    0.0
    C    -3.6994548606710294    0.679756440226243    0.0
    C    -2.491071629304984    1.3691410936065622    0.0
    C    0.00109864076519884    1.4625430557612011    0.0
    C    -0.0032011608279782907    -1.420570706565193    0.0
    C    1.2614840279546329    0.6846335914596227    0.0
    C    1.2361818362995647    -0.7219867416861618    0.0
    C    -1.26265818176434    0.6867849729041429    0.0
    C    -1.2386678441766117    -0.7222384518345227    0.0
    H    2.488742214160917    2.452177493263052    0.0
    H    4.638956165417987    1.2211428982202612    0.0
    H    4.609045306049928    -1.263749954988303    0.0
    H    2.466624595042791    -2.4803020883058426    0.0
    H    -0.002968699102727323    -2.5016333033255354    0.0
    H    -2.468490211436525    -2.4824993698362405    0.0
    H    -4.609562052178033    -1.2637677227634814    0.0
    H    -4.634720031685866    1.2195512016938612    0.0
    H    -2.4877457381029937    2.4523314806479313    0.0
    H    0.0043220113121501536    2.154539590452782    -0.859720297017975
    H    0.0043220113121501536    2.154539590452782    0.859720297017975

