%NProcShared=16
%mem = 64GB
%Chk=check_sp_0
#n M062X/cc-pvtz TD EmpiricalDispersion=GD3 SP pop=reg
 
 SP_0

1 1
    C    2.5161034632355124    1.3671733125055525    0.0
    C    3.7278418428144158    0.6917037883857977    0.0
    C    3.6929748686665285    -0.6862273194349847    0.0
    C    2.4389958257573516    -1.3855519363913649    0.0
    C    -2.4879460463738936    -1.4129143101661288    0.0
    C    -3.6763086955491717    -0.7258672258580353    0.0
    C    -3.6768483280523556    0.669707282714916    0.0
    C    -2.4737095516598067    1.369483123278747    0.0
    C    0.013183689182386214    1.467966669134413    0.0
    C    -0.03841392993573988    -1.4212384787823151    0.0
    C    1.2551483354555955    0.6723530975154728    0.0
    C    1.2220120355947761    -0.7205209002339423    0.0
    C    -1.269238181172081    0.6981696748497143    0.0
    C    -1.2518441301193401    -0.7235414220142735    0.0
    H    2.496136569931002    2.4504999191566226    0.0
    H    4.663223985015843    1.2296447786431342    0.0
    H    4.606683672599129    -1.2646294598596346    0.0
    H    2.456445140513489    -2.4684450596701115    0.0
    H    -0.03562438923272824    -2.5022196399064227    0.0
    H    -2.4788325372382953    -2.494812438034884    0.0
    H    -4.612884626136397    -1.2648426731617755    0.0
    H    -4.612390380230388    1.2105444203263347    0.0
    H    -2.4841788572359262    2.4523477677751786    0.0
    H    0.05186413574580236    2.1553050854333855    -0.8611535642157008
    H    0.05186413574580236    2.1553050854333855    0.8611535642157008

