%NProcShared=16
%mem = 64GB
%Chk=check_sp_8
#n M062X/cc-pvtz TD EmpiricalDispersion=GD3 SP pop=reg
 
 SP_8

1 1
    C    2.500467821078504    1.3684644375018509    0.0
    C    3.7102872809381386    0.6843479294619326    0.0
    C    3.6868982895555096    -0.6988424398116616    0.0
    C    2.4551052752524503    -1.3944239787971215    0.0
    C    -2.4714220154579642    -1.4035447700553763    0.0
    C    -3.6813428985163905    -0.7120557419526785    0.0
    C    -3.6932894426841183    0.6770157609049721    0.0
    C    -2.4863365172199354    1.369234374426249    0.0
    C    0.004394563060795396    1.4640222230448043    0.0
    C    -0.01280464331191327    -1.4207528262607716    0.0
    C    1.2597561118185319    0.681284365838491    0.0
    C    1.2323173451982588    -0.7215869667446474    0.0
    C    -1.2644527270573602    0.6898898916165714    0.0
    C    -1.2422613767064468    -0.7225938073380912    0.0
    H    2.490758856643667    2.4517199730522075    0.0
    H    4.645574661671947    1.2234615928810446    0.0
    H    4.608401224199709    -1.2639898199532116    0.0
    H    2.463848380171163    -2.4770683532233706    0.0
    H    -0.011874796410909392    -2.501793213302141    0.0
    H    -2.4713108457460984    -2.4858574793449613    0.0
    H    -4.610468208712132    -1.2640608910539253    0.0
    H    -4.628630126743463    1.2170948067754448    0.0
    H    -2.4867729524119753    2.4523359225917263    0.0
    H    0.017288045248600756    2.1547483618111283    -0.8601111880719002
    H    0.017288045248600756    2.1547483618111283    0.8601111880719002

