%NProcShared=16
%mem = 64GB
%Chk=check_sp_12
#n M062X/cc-pvtz TD EmpiricalDispersion=GD3 SP
 
 SP_12

1 1
    C    2.49265    1.36911    0.0
    C    3.70151    0.68067    0.0
    C    3.68386    -0.70515    0.0
    C    2.46316    -1.39886    0.0
    C    -2.46316    -1.39886    -0.0
    C    -3.68386    -0.70515    -0.0
    C    -3.70151    0.68067    -0.0
    C    -2.49265    1.36911    -0.0
    C    -1.2197362733155649e-17    1.46205    0.0
    C    3.5540024567496645e-17    -1.42051    0.0
    C    1.26206    0.68575    0.0
    C    1.23747    -0.72212    0.0
    C    -1.26206    0.68575    -0.0
    C    -1.23747    -0.72212    -0.0
    H    2.48807    2.45233    0.0
    H    4.63675    1.22037    0.0
    H    4.60926    -1.26367    0.0
    H    2.46755    -2.48138    0.0
    H    3.295918097031951e-17    -2.50158    0.0
    H    -2.46755    -2.48138    -0.0
    H    -4.60926    -1.26367    -0.0
    H    -4.63675    1.22037    -0.0
    H    -2.48807    2.45233    -0.0
    H    -4.798396471439534e-17    2.15447    -0.85959
    H    -4.798396471439534e-17    2.15447    0.85959

