%NProcShared=16
%mem = 64GB
%Chk=check_sp_10
#n M062X/cc-pvtz TD EmpiricalDispersion=GD3 SP pop=reg
 
 SP_10

1 1
    C    2.496558910539252    1.3687872187509253    0.0
    C    3.7058986404690692    0.6825089647309662    0.0
    C    3.685379144777755    -0.7019962199058308    0.0
    C    2.459132637626225    -1.3966419893985609    0.0
    C    -2.4672910077289822    -1.401202385027688    0.0
    C    -3.6826014492581955    -0.7086028709763392    0.0
    C    -3.6973997213420593    0.678842880452486    0.0
    C    -2.4894932586099676    1.3691721872131246    0.0
    C    0.002197281530397692    1.4630361115224022    0.0
    C    -0.006402321655956617    -1.4206314131303859    0.0
    C    1.2609080559092658    0.6835171829192455    0.0
    C    1.2348936725991295    -0.7218534833723237    0.0
    C    -1.2632563635286802    0.6878199458082856    0.0
    C    -1.2398656883532233    -0.7223569036690456    0.0
    H    2.4894144283218336    2.4520249865261037    0.0
    H    4.641162330835974    1.2219157964405223    0.0
    H    4.608830612099855    -1.263829909976606    0.0
    H    2.4656991900855814    -2.4792241766116856    0.0
    H    -0.005937398205454679    -2.5016866066510706    0.0
    H    -2.4694304228730495    -2.483618739672481    0.0
    H    -4.609864104356066    -1.2638654455269627    0.0
    H    -4.632690063371731    1.2187324033877225    0.0
    H    -2.487421476205988    2.452332961295863    0.0
    H    0.008644022624300354    2.154609180905564    -0.8598505940359501
    H    0.008644022624300354    2.154609180905564    0.8598505940359501

