%NProcShared=16
%mem = 64GB
%Chk=check_sp_23
#n M062X/cc-pvtz TD EmpiricalDispersion=GD3 SP
 
 SP_23

1 1
    C    2.4711509920341133    1.3708852968699103    0.0
    C    3.677372477420118    0.6705556939796854    0.0
    C    3.6755047037223494    -0.7224957905179308    0.0
    C    2.485310493055761    -1.4110590583079154    0.0
    C    -2.440439457490597    -1.3859768823477152    -0.0
    C    -3.690782029079926    -0.6861592096301343    -0.0
    C    -3.7241165326186736    0.690719157511327    -0.0
    C    -2.5100120776451766    1.3687679703278155    -0.0
    C    -0.012085048417187386    1.4566263866267881    0.0
    C    0.035212769107761624    -1.4198422277828777    0.0
    C    1.2683956924990374    0.69803049394415    0.0
    C    1.2516398007047889    -0.7235858414522195    0.0
    C    -1.255480000592259    0.6743652980544285    -0.0
    C    -1.2242937140572716    -0.7208170298202493    -0.0
    H    2.480675644229915    2.454007574106429    0.0
    H    4.612482180402144    1.2118681195771268    0.0
    H    4.611621633450798    -1.2627904951286684    0.0
    H    2.4777294545293023    -2.4932370286357313    0.0
    H    0.03265569013000095    -2.500993663419113    0.0
    H    -2.4572076741982296    -2.4690669318013567    -0.0
    H    -4.605937426041636    -1.262595049601706    -0.0
    H    -4.659079651455478    1.2293767813675265    -0.0
    H    -2.4916368808670675    2.452313712872753    -0.0
    H    -0.04754212443365226    2.1537045050193964    -0.8581567328022742
    H    -0.04754212443365226    2.1537045050193964    0.8581567328022742

