%NProcShared=16
%mem = 64GB
%Chk=check_sp_1
#n M062X/cc-pvtz TD EmpiricalDispersion=GD3 SP pop=reg
 
 SP_1

1 1
    C    2.5141490079658864    1.3673347031300898    0.0
    C    3.725647522579881    0.6907843060203146    0.0
    C    3.692215296277651    -0.6878042094820693    0.0
    C    2.441009506944239    -1.3866609416920845    0.0
    C    -2.4858805425094026    -1.4117431176522848    0.0
    C    -3.6769379709200742    -0.7241407903698658    0.0
    C    -3.678903467381326    0.670620842488673    0.0
    C    -2.475287922354823    1.3694520296721846    0.0
    C    0.012085048417187362    1.467473613373212    0.0
    C    -0.035212769107761555    -1.4211777722171222    0.0
    C    1.2557243075009625    0.67346950605585    0.0
    C    1.2233001992952115    -0.7206541585477805    0.0
    C    -1.2686399994077409    0.6971347019455715    0.0
    C    -1.2506462859427285    -0.7234229701797507    0.0
    H    2.495464355770085    2.450652425893571    0.0
    H    4.661017819597856    1.228871880422873    0.0
    H    4.606898366549202    -1.2645495048713318    0.0
    H    2.457370545470698    -2.469522971364269    0.0
    H    -0.032655690130000886    -2.5021663365808875    0.0
    H    -2.4778923258017707    -2.4936930681986436    0.0
    H    -4.612582573958364    -1.2647449503982942    0.0
    H    -4.614420348544522    1.2113632186324734    0.0
    H    -2.4845031191329325    2.452346287127247    0.0
    H    0.04754212443365216    2.1552354949806034    -0.8610232671977257
    H    0.04754212443365216    2.1552354949806034    0.8610232671977257

