%NProcShared=16
%mem = 64GB
%Chk=check_sp_4
#n M062X/cc-pvtz TD EmpiricalDispersion=GD3 SP pop=reg
 
 SP_4

1 1
    C    2.508285642157008    1.3678188750037017    0.0
    C    3.7190645618762774    0.6880258589238651    0.0
    C    3.689936579111019    -0.6925348796233232    0.0
    C    2.4470505505049007    -1.3899879575942433    0.0
    C    -2.479684030915929    -1.4082295401107525    0.0
    C    -3.6788257970327813    -0.7189614839053569    0.0
    C    -3.685068885368237    0.673361521809944    0.0
    C    -2.480023034439871    1.3693587488524979    0.0
    C    0.008789126121590805    1.4659944460896086    0.0
    C    -0.025609286623826576    -1.4209956525215435    0.0
    C    1.2574522236370635    0.6768187316769818    0.0
    C    1.2271646903965174    -0.7210539334892949    0.0
    C    -1.2668454541147207    0.6940297832331429    0.0
    C    -1.2470527534128935    -0.7230676146761823    0.0
    H    2.4934477132873347    2.451109946104415    0.0
    H    4.654399323343895    1.2265531857620895    0.0
    H    4.607542448399419    -1.264309639906423    0.0
    H    2.460146760342326    -2.472756706446741    0.0
    H    -0.023749592821818814    -2.502006426604282    0.0
    H    -2.475071691492197    -2.4903349586899224    0.0
    H    -4.611676417424265    -1.2644517821078503    0.0
    H    -4.620510253486925    1.2138196135508899    0.0
    H    -2.485475904823951    2.452341845183452    0.0
    H    0.03457609049720156    2.155026723622257    -0.8606323761438005
    H    0.03457609049720156    2.155026723622257    0.8606323761438005

