%NProcShared=16
%mem = 64GB
%Chk=check_sp_6
#n M062X/cc-pvtz TD EmpiricalDispersion=GD3 SP pop=reg
 
 SP_6

1 1
    C    2.504376731617756    1.3681416562527762    0.0
    C    3.714675921407208    0.6861868941928988    0.0
    C    3.6884174343332643    -0.6956886597174924    0.0
    C    2.4510779128786755    -1.3922059681956824    0.0
    C    -2.4755530231869467    -1.4058871550830645    0.0
    C    -3.680084347774586    -0.7155086129290177    0.0
    C    -3.6891791640261777    0.675188641357458    0.0
    C    -2.4831797758299032    1.3692965616393735    0.0
    C    0.006591844591193101    1.4650083345672065    0.0
    C    -0.019206964967869923    -1.4208742393911575    0.0
    C    1.2586041677277977    0.6790515487577363    0.0
    C    1.229741017797388    -0.7213204501169712    0.0
    C    -1.2656490905860405    0.6919598374248571    0.0
    C    -1.2446570650596702    -0.7228307110071367    0.0
    H    2.4921032849655007    2.4514149595783112    0.0
    H    4.649986992507921    1.2250073893215672    0.0
    H    4.607971836299565    -1.2641497299298174    0.0
    H    2.4619975702567443    -2.4749125298350556    0.0
    H    -0.017812194616364102    -2.5018998199532114    0.0
    H    -2.4731912686191477    -2.488096219017442    0.0
    H    -4.611072313068199    -1.2642563365808877    0.0
    H    -4.624570190115194    1.2154572101631673    0.0
    H    -2.486124428617963    2.452338883887589    0.0
    H    0.025932067872901157    2.1548875427166925    -0.8603717821078504
    H    0.025932067872901157    2.1548875427166925    0.8603717821078504

