%NProcShared=16
%mem = 64GB
%Chk=check_sp_2
#n M062X/cc-pvtz TD EmpiricalDispersion=GD3 SP pop=reg
 
 SP_2

1 1
    C    2.5121945526962604    1.367496093754627    0.0
    C    3.7234532023453464    0.6898648236548314    0.0
    C    3.6914557238887737    -0.6893810995291539    0.0
    C    2.4430231881311264    -1.387769946992804    0.0
    C    -2.483815038644911    -1.4105719251384408    0.0
    C    -3.6775672462909768    -0.7224143548816961    0.0
    C    -3.6809586067102966    0.67153440226243    0.0
    C    -2.476866293049839    1.3694209360656224    0.0
    C    0.01098640765198851    1.4669805576120107    0.0
    C    -0.03201160827978323    -1.4211170656519292    0.0
    C    1.2563002795463296    0.6745859145962273    0.0
    C    1.2245883629956467    -0.7207874168616186    0.0
    C    -1.2680418176434007    0.6960997290414286    0.0
    C    -1.249448441766117    -0.7233045183452279    0.0
    H    2.4947921416091683    2.450804932630519    0.0
    H    4.658811654179869    1.2280989822026118    0.0
    H    4.607113060499274    -1.264469549883029    0.0
    H    2.458295950427907    -2.470600883058426    0.0
    H    -0.029686991027273527    -2.5021130332553523    0.0
    H    -2.476952114365246    -2.492573698362403    0.0
    H    -4.612280521780331    -1.2646472276348129    0.0
    H    -4.616450316858657    1.2121820169386122    0.0
    H    -2.4848273810299384    2.4523448064793154    0.0
    H    0.043220113121501966    2.1551659045278213    -0.8608929701797506
    H    0.043220113121501966    2.1551659045278213    0.8608929701797506

