%NProcShared=16
%mem = 64GB
%Chk=check_sp_17
#n M062X/cc-pvtz TD EmpiricalDispersion=GD3 SP 
 
 SP_17

1 1
    C    2.4828777236518698    1.3699169531226865    0.0
    C    3.6905383988273264    0.6760725881725843    0.0
    C    3.6800621380556136    -0.7130344502354231    0.0
    C    2.4732284059344365    -1.4044050265035979    0.0
    C    -2.452832480677544    -1.3930040374307797    -0.0
    C    -3.687006376854512    -0.696517822559152    -0.0
    C    -3.7117856966448515    0.685237798868785    -0.0
    C    -2.50054185347508    1.3689545319671887    -0.0
    C    -0.005493203825994273    1.4595847211939947    0.0
    C    0.016005804139891666    -1.4202064671740353    0.0
    C    1.2649398602268351    0.6913320427018863    0.0
    C    1.2439108185021768    -0.7227862915691907    0.0
    C    -1.2590690911782996    0.6805751354792856    -0.0
    C    -1.2314807791169418    -0.721527740827386    -0.0
    H    2.484708929195416    2.4530925336847402    0.0
    H    4.625719172910066    1.216505508898694    0.0
    H    4.610333469750363    -1.2632702250584857    0.0
    H    2.4721770247860464    -2.486769558470787    0.0
    H    0.014843495513636814    -2.501313483372324    0.0
    H    -2.462848942817377    -2.4757831508187986    -0.0
    H    -4.607749739109835    -1.2631813861825936    -0.0
    H    -4.646899841570672    1.2244639915306939    -0.0
    H    -2.4896913094850306    2.452322596760342    -0.0
    H    -0.021610056560751052    2.1541220477360894    -0.8589385149101246
    H    -0.021610056560751052    2.1541220477360894    0.8589385149101246

