%NProcShared=8
%mem = 32GB
%Chk=check_ts2_dh
#n B2PLYPD3/6-311++G(d,p) TD Opt=(TS,CalcAll)  

 Title
1 1
                 C                   -0.000000    2.498491    1.364128
                 C                   -0.000000    3.709964    0.673573
                 C                   -0.000000    3.692500   -0.715782
                 C                   -0.000000    2.468906   -1.411261
                 C                   -0.000000   -2.468906   -1.411261
                 C                   -0.000000   -3.692500   -0.715782
                 C                   -0.000000   -3.709964    0.673573
                 C                   -0.000000   -2.498491    1.364128
                 C                   -0.000000    0.000000    1.458006
                 C                    0.000000   -0.000000   -1.433200
                 C                   -0.000000    1.264622    0.678662
                 C                   -0.000000    1.240563   -0.732131
                 C                   -0.000000   -1.264622    0.678662
                 C                   -0.000000   -1.240563   -0.732131
                 H                   -0.000000    2.495019    2.449465
                 H                   -0.000000    4.647143    1.214257
                 H                   -0.000000    4.619855   -1.275263
                 H                   -0.000000    2.473587   -2.495901
                 H                    0.000000   -0.000000   -2.516244
                 H                   -0.000000   -2.473587   -2.495901
                 H                   -0.000000   -4.619855   -1.275263
                 H                   -0.000000   -4.647143    1.214257
                 H                   -0.000000   -2.495019    2.449465
                 H                   -0.863770    0.000000    2.148010
                 H                    0.863770   -0.000000    2.148010




