%NProcShared=16
%mem = 64GB
#n M062X/6-311++G(d,p) TD(NStates=1) EmpiricalDispersion=GD3 SP
 
 SP_1

1 1
    C    2.4927    1.2971    0.017
    C    3.7015    0.5907    -0.037
    C    3.6839    -0.7531    -0.08
    C    2.4632    -1.2929    -0.06
    C    -2.4632    -1.3049    0.02
    C    -3.6839    -0.7471    0.08
    C    -3.7015    0.5907    0.043000000000000003
    C    -2.4927    1.2811    0.017
    C    0.0    1.4221    0.033
    C    0.0    -1.2755    -0.027000000000000003
    C    1.2621    0.7347    0.063
    C    1.2375    -0.6740999999999999    -0.018000000000000002
    C    -1.2621    0.7267    -0.04700000000000001
    C    -1.2375    -0.6800999999999999    -0.008
    H    2.4881    2.4413    0.018
    H    4.6368    1.1393999999999997    -0.047
    H    4.6093    -1.2627    0.004000000000000002
    H    2.4675    -2.4184    -0.061
    H    0.0    -2.3766    -0.028000000000000004
    H    -2.4675    -2.4543999999999997    0.019000000000000003
    H    -4.6093    -1.2747    0.024
    H    -4.6368    1.1214    0.023000000000000003
    H    -2.4881    2.4133000000000004    0.018
    H    -0.002    1.9345    -0.8296
    H    0.002    1.9345    0.8896000000000001

