%NProcShared=16
%mem = 64GB
#n M062X/6-311++G(d,p) TD(NStates=1) EmpiricalDispersion=GD3 SP
 
 SP_5

1 1
    C    2.4927    1.3611    0.085
    C    3.7015    0.6266999999999999    -0.009000000000000001
    C    3.6839    -0.7471    -0.048
    C    2.4632    -1.3089    -0.124
    C    -2.4632    -1.3689    -0.07600000000000001
    C    -3.6839    -0.7171    0.048
    C    -3.7015    0.6266999999999999    0.039
    C    -2.4927    1.2811    0.085
    C    0.0    1.4381    0.165
    C    0.0    -1.3335000000000001    -0.135
    C    1.2621    0.7327    0.07300000000000001
    C    1.2375    -0.6800999999999999    -0.068
    C    -1.2621    0.6927    0.006999999999999999
    C    -1.2375    -0.7101    -0.062
    H    2.4881    2.5073    0.09
    H    4.6368    1.2113999999999998    -0.081
    H    4.6093    -1.2367    0.064
    H    2.4675    -2.3644    -0.129
    H    0.0    -2.4265999999999996    -0.14
    H    -2.4675    -2.5443999999999996    -0.08100000000000002
    H    -4.6093    -1.2967    0.07600000000000001
    H    -4.6368    1.1214    -0.03899999999999999
    H    -2.4881    2.3673    0.09
    H    -0.01    2.0225    -0.7096
    H    0.01    2.0225    1.0096

