%NProcShared=16
%mem = 64GB
#n M062X/6-311++G(d,p) TD(NStates=1) EmpiricalDispersion=GD3 SP
 
 SP_2

1 1
    C    2.4927    1.3531    0.034
    C    3.7015    0.6446999999999999    -0.01
    C    3.6839    -0.7291    -0.032
    C    2.4632    -1.3469    -0.056
    C    -2.4632    -1.3709    -0.024
    C    -3.6839    -0.7171    0.032
    C    -3.7015    0.6446999999999999    0.022
    C    -2.4927    1.3211    0.034
    C    0.0    1.4461    0.066
    C    0.0    -1.3625    -0.054000000000000006
    C    1.2621    0.7117    0.038
    C    1.2375    -0.6980999999999999    -0.028000000000000004
    C    -1.2621    0.6957    -0.005999999999999998
    C    -1.2375    -0.7101    -0.024
    H    2.4881    2.4703000000000004    0.036
    H    4.6368    1.2024    -0.038000000000000006
    H    4.6093    -1.2537    0.024000000000000004
    H    2.4675    -2.4274    -0.057999999999999996
    H    0.0    -2.4516    -0.05600000000000001
    H    -2.4675    -2.4994    -0.025999999999999995
    H    -4.6093    -1.2777    0.032
    H    -4.6368    1.1663999999999999    -0.009999999999999998
    H    -2.4881    2.4143000000000003    0.036
    H    -0.004    2.0665    -0.7996000000000001
    H    0.004    2.0665    0.9196

