%NProcShared=16
%mem = 64GB
#n M062X/6-311++G(d,p) TD(NStates=1) EmpiricalDispersion=GD3 SP
 
 SP_3

1 1
    C    2.4927    1.3131    0.051000000000000004
    C    3.7015    0.5907    -0.031
    C    3.6839    -0.7591    -0.08
    C    2.4632    -1.2809    -0.1
    C    -2.4632    -1.3169    -0.02000000000000001
    C    -3.6839    -0.7411    0.08
    C    -3.7015    0.5907    0.049
    C    -2.4927    1.2651    0.051000000000000004
    C    0.0    1.4221    0.099
    C    0.0    -1.2755    -0.081
    C    1.2621    0.7427    0.07900000000000001
    C    1.2375    -0.6680999999999999    -0.044
    C    -1.2621    0.7187    -0.031000000000000007
    C    -1.2375    -0.6860999999999999    -0.034
    H    2.4881    2.4693    0.054000000000000006
    H    4.6368    1.1573999999999998    -0.07100000000000001
    H    4.6093    -1.2507    0.032
    H    2.4675    -2.3824    -0.10300000000000001
    H    0.0    -2.3766    -0.084
    H    -2.4675    -2.4903999999999997    -0.023
    H    -4.6093    -1.2867    0.052000000000000005
    H    -4.6368    1.1034    -0.000999999999999994
    H    -2.4881    2.3853000000000004    0.054000000000000006
    H    -0.006    1.9345    -0.7696000000000001
    H    0.006    1.9345    0.9496

