%NProcShared=16
%mem = 64GB
#n M062X/6-311++G(d,p) TD(NStates=1) EmpiricalDispersion=GD3 SP
 
 SP_0

1 1
    C    2.4927    1.3531    0.0
    C    3.7015    0.6627    -0.008
    C    3.6839    -0.7141    -0.016
    C    2.4632    -1.3789    -0.008
    C    -2.4632    -1.3789    0.008
    C    -3.6839    -0.7141    0.016
    C    -3.7015    0.6627    0.008
    C    -2.4927    1.3531    0.0
    C    0.0    1.4541    0.0
    C    0.0    -1.3915000000000002    0.0
    C    1.2621    0.6947    0.011
    C    1.2375    -0.7131    -0.001
    C    -1.2621    0.6947    -0.011
    C    -1.2375    -0.7131    0.001
    H    2.4881    2.4473000000000003    0.0
    H    4.6368    1.2024    -0.007000000000000001
    H    4.6093    -1.2647    -0.002
    H    2.4675    -2.4724    -0.008
    H    0.0    -2.4766    0.0
    H    -2.4675    -2.4724    0.008
    H    -4.6093    -1.2647    0.002
    H    -4.6368    1.2024    0.007000000000000001
    H    -2.4881    2.4473000000000003    0.0
    H    0.0    2.1105    -0.8596
    H    0.0    2.1105    0.8596

