%NProcShared=16
%mem = 64GB
#n M062X/6-311++G(d,p) TD(NStates=1) EmpiricalDispersion=GD3 SP
 
 SP_5

1 1
    C    2.4927    1.3451    0.085
    C    3.7015    0.6087    -0.017
    C    3.6839    -0.7561    -0.064
    C    2.4632    -1.2889    -0.132
    C    -2.4632    -1.3489    -0.068
    C    -3.6839    -0.7261    0.064
    C    -3.7015    0.6087    0.047
    C    -2.4927    1.2651    0.085
    C    0.0    1.4301    0.165
    C    0.0    -1.3045    -0.135
    C    1.2621    0.7417    0.08399999999999999
    C    1.2375    -0.6710999999999999    -0.069
    C    -1.2621    0.7017    -0.003999999999999997
    C    -1.2375    -0.7011    -0.061
    H    2.4881    2.5023    0.09
    H    4.6368    1.1933999999999998    -0.088
    H    4.6093    -1.2377    0.062000000000000006
    H    2.4675    -2.3554    -0.137
    H    0.0    -2.4015999999999997    -0.14
    H    -2.4675    -2.5353999999999997    -0.07300000000000001
    H    -4.6093    -1.2977    0.07800000000000001
    H    -4.6368    1.1034    -0.031999999999999994
    H    -2.4881    2.3623000000000003    0.09
    H    -0.01    1.9785000000000001    -0.7096
    H    0.01    1.9785000000000001    1.0096

