%NProcShared=16
%mem = 64GB
#n M062X/6-311++G(d,p) TD(NStates=1) EmpiricalDispersion=GD3 SP
 
 SP_5

1 1
    C    2.4927    1.3771    0.085
    C    3.7015    0.6446999999999999    -0.0010000000000000009
    C    3.6839    -0.7381    -0.032
    C    2.4632    -1.3289    -0.116
    C    -2.4632    -1.3889    -0.084
    C    -3.6839    -0.7081    0.032
    C    -3.7015    0.6446999999999999    0.031
    C    -2.4927    1.2971    0.085
    C    0.0    1.4461    0.165
    C    0.0    -1.3625    -0.135
    C    1.2621    0.7237    0.062
    C    1.2375    -0.6890999999999999    -0.067
    C    -1.2621    0.6837    0.018000000000000002
    C    -1.2375    -0.7191    -0.063
    H    2.4881    2.5123    0.09
    H    4.6368    1.2293999999999998    -0.074
    H    4.6093    -1.2357    0.066
    H    2.4675    -2.3734    -0.12100000000000001
    H    0.0    -2.4516    -0.14
    H    -2.4675    -2.5534    -0.08900000000000001
    H    -4.6093    -1.2957    0.07400000000000001
    H    -4.6368    1.1394    -0.046
    H    -2.4881    2.3723000000000005    0.09
    H    -0.01    2.0665    -0.7096
    H    0.01    2.0665    1.0096

