%NProcShared=16
%mem = 64GB
#n M062X/6-311++G(d,p) TD(NStates=1) EmpiricalDispersion=GD3 SP
 
 SP_3

1 1
    C    2.4927    1.3931    0.051000000000000004
    C    3.7015    0.6807    0.009
    C    3.6839    -0.7141    0.0
    C    2.4632    -1.3809    -0.06000000000000001
    C    -2.4632    -1.4169    -0.06000000000000001
    C    -3.6839    -0.6960999999999999    0.0
    C    -3.7015    0.6807    0.009
    C    -2.4927    1.3451    0.051000000000000004
    C    0.0    1.4621    0.099
    C    0.0    -1.4205    -0.081
    C    1.2621    0.6977    0.024
    C    1.2375    -0.7131    -0.039
    C    -1.2621    0.6737    0.024
    C    -1.2375    -0.7311    -0.039
    H    2.4881    2.4943    0.054000000000000006
    H    4.6368    1.2473999999999998    -0.036
    H    4.6093    -1.2457    0.042
    H    2.4675    -2.4274    -0.063
    H    0.0    -2.5016    -0.084
    H    -2.4675    -2.5353999999999997    -0.063
    H    -4.6093    -1.2817    0.042
    H    -4.6368    1.1934    -0.036
    H    -2.4881    2.4103000000000003    0.054000000000000006
    H    -0.006    2.1545    -0.7696000000000001
    H    0.006    2.1545    0.9496

