%NProcShared=16
%mem = 64GB
#n M062X/6-311++G(d,p) TD(NStates=1) EmpiricalDispersion=GD3 SP
 
 SP_4

1 1
    C    2.4927    1.3371    0.068
    C    3.7015    0.6087    -0.02
    C    3.6839    -0.7531    -0.064
    C    2.4632    -1.2949    -0.112
    C    -2.4632    -1.3429    -0.048
    C    -3.6839    -0.7291    0.064
    C    -3.7015    0.6087    0.044
    C    -2.4927    1.2731    0.068
    C    0.0    1.4301    0.132
    C    0.0    -1.3045    -0.10800000000000001
    C    1.2621    0.7377    0.076
    C    1.2375    -0.6740999999999999    -0.05600000000000001
    C    -1.2621    0.7057    -0.011999999999999997
    C    -1.2375    -0.6980999999999999    -0.048
    H    2.4881    2.4883    0.072
    H    4.6368    1.1844    -0.07600000000000001
    H    4.6093    -1.2437    0.04800000000000001
    H    2.4675    -2.3733999999999997    -0.11599999999999999
    H    0.0    -2.4015999999999997    -0.11200000000000002
    H    -2.4675    -2.5174    -0.05199999999999999
    H    -4.6093    -1.2917    0.064
    H    -4.6368    1.1123999999999998    -0.019999999999999997
    H    -2.4881    2.3763    0.072
    H    -0.008    1.9785000000000001    -0.7396
    H    0.008    1.9785000000000001    0.9796

