%NProcShared=16
%mem = 64GB
#n M062X/6-311++G(d,p) TD(NStates=1) EmpiricalDispersion=GD3 SP
 
 SP_4

1 1
    C    2.4927    1.3851    0.068
    C    3.7015    0.6627    0.004
    C    3.6839    -0.7261    -0.016
    C    2.4632    -1.3549    -0.088
    C    -2.4632    -1.4029    -0.07200000000000001
    C    -3.6839    -0.7021    0.016
    C    -3.7015    0.6627    0.02
    C    -2.4927    1.3211    0.068
    C    0.0    1.4541    0.132
    C    0.0    -1.3915000000000002    -0.10800000000000001
    C    1.2621    0.7107    0.043
    C    1.2375    -0.7011    -0.053000000000000005
    C    -1.2621    0.6787    0.021
    C    -1.2375    -0.7251    -0.051000000000000004
    H    2.4881    2.5033000000000003    0.072
    H    4.6368    1.2384    -0.055
    H    4.6093    -1.2407    0.054000000000000006
    H    2.4675    -2.4004    -0.092
    H    0.0    -2.4766    -0.11200000000000002
    H    -2.4675    -2.5444    -0.07599999999999998
    H    -4.6093    -1.2887    0.05800000000000001
    H    -4.6368    1.1663999999999999    -0.041
    H    -2.4881    2.3913    0.072
    H    -0.008    2.1105    -0.7396
    H    0.008    2.1105    0.9796

