%NProcShared=16
%mem = 64GB
#n M062X/6-311++G(d,p) TD(NStates=1) EmpiricalDispersion=GD3 SP
 
 SP_4

1 1
    C    2.4927    1.3211    0.068
    C    3.7015    0.5907    -0.028
    C    3.6839    -0.7621    -0.08
    C    2.4632    -1.2749    -0.12
    C    -2.4632    -1.3229    -0.04
    C    -3.6839    -0.7381    0.08
    C    -3.7015    0.5907    0.052000000000000005
    C    -2.4927    1.2570999999999999    0.068
    C    0.0    1.4221    0.132
    C    0.0    -1.2755    -0.10800000000000001
    C    1.2621    0.7467    0.08700000000000001
    C    1.2375    -0.6650999999999999    -0.057
    C    -1.2621    0.7147    -0.023000000000000007
    C    -1.2375    -0.6890999999999999    -0.04700000000000001
    H    2.4881    2.4833000000000003    0.072
    H    4.6368    1.1663999999999999    -0.083
    H    4.6093    -1.2447    0.046000000000000006
    H    2.4675    -2.3644    -0.124
    H    0.0    -2.3766    -0.11200000000000002
    H    -2.4675    -2.5084    -0.04399999999999999
    H    -4.6093    -1.2927    0.066
    H    -4.6368    1.0943999999999998    -0.012999999999999998
    H    -2.4881    2.3713    0.072
    H    -0.008    1.9345    -0.7396
    H    0.008    1.9345    0.9796

