%NProcShared=16
%mem = 64GB
#n M062X/6-311++G(d,p) TD(NStates=1) EmpiricalDispersion=GD3 SP
 
 SP_2

1 1
    C    2.4927    1.3051    0.034
    C    3.7015    0.5907    -0.034
    C    3.6839    -0.7561    -0.08
    C    2.4632    -1.2869    -0.08
    C    -2.4632    -1.3109    0.0
    C    -3.6839    -0.7441    0.08
    C    -3.7015    0.5907    0.046
    C    -2.4927    1.2731    0.034
    C    0.0    1.4221    0.066
    C    0.0    -1.2755    -0.054000000000000006
    C    1.2621    0.7387    0.07100000000000001
    C    1.2375    -0.6710999999999999    -0.031000000000000003
    C    -1.2621    0.7227    -0.03900000000000001
    C    -1.2375    -0.6830999999999999    -0.021
    H    2.4881    2.4553000000000003    0.036
    H    4.6368    1.1483999999999999    -0.059000000000000004
    H    4.6093    -1.2567    0.018000000000000002
    H    2.4675    -2.4004    -0.08199999999999999
    H    0.0    -2.3766    -0.05600000000000001
    H    -2.4675    -2.4724    -0.001999999999999995
    H    -4.6093    -1.2807    0.038000000000000006
    H    -4.6368    1.1123999999999998    0.011000000000000003
    H    -2.4881    2.3993    0.036
    H    -0.004    1.9345    -0.7996000000000001
    H    0.004    1.9345    0.9196

