%NProcShared=16
%mem = 64GB
#n M062X/6-311++G(d,p) TD(NStates=1) EmpiricalDispersion=GD3 SP
 
 SP_5

1 1
    C    2.4927    1.3291    0.085
    C    3.7015    0.5907    -0.025
    C    3.6839    -0.7651    -0.08
    C    2.4632    -1.2689    -0.14
    C    -2.4632    -1.3289    -0.060000000000000005
    C    -3.6839    -0.7351    0.08
    C    -3.7015    0.5907    0.055
    C    -2.4927    1.2490999999999999    0.085
    C    0.0    1.4221    0.165
    C    0.0    -1.2755    -0.135
    C    1.2621    0.7507    0.095
    C    1.2375    -0.6620999999999999    -0.07
    C    -1.2621    0.7107    -0.015000000000000006
    C    -1.2375    -0.6920999999999999    -0.060000000000000005
    H    2.4881    2.4973    0.09
    H    4.6368    1.1753999999999998    -0.095
    H    4.6093    -1.2387    0.060000000000000005
    H    2.4675    -2.3464    -0.14500000000000002
    H    0.0    -2.3766    -0.14
    H    -2.4675    -2.5263999999999998    -0.065
    H    -4.6093    -1.2987    0.08
    H    -4.6368    1.0854    -0.024999999999999994
    H    -2.4881    2.3573000000000004    0.09
    H    -0.01    1.9345    -0.7096
    H    0.01    1.9345    1.0096

