%NProcShared=16
%mem = 64GB
#n M062X/6-311++G(d,p) TD(NStates=1) EmpiricalDispersion=GD3 SP
 
 SP_5

1 1
    C    2.4927    1.3931    0.085
    C    3.7015    0.6627    0.006999999999999999
    C    3.6839    -0.7291    -0.016
    C    2.4632    -1.3489    -0.10800000000000001
    C    -2.4632    -1.4089    -0.092
    C    -3.6839    -0.6990999999999999    0.016
    C    -3.7015    0.6627    0.023
    C    -2.4927    1.3131    0.085
    C    0.0    1.4541    0.165
    C    0.0    -1.3915000000000002    -0.135
    C    1.2621    0.7147    0.051000000000000004
    C    1.2375    -0.6980999999999999    -0.066
    C    -1.2621    0.6747    0.029
    C    -1.2375    -0.7281    -0.064
    H    2.4881    2.5173    0.09
    H    4.6368    1.2473999999999998    -0.067
    H    4.6093    -1.2347    0.068
    H    2.4675    -2.3824    -0.11300000000000002
    H    0.0    -2.4766    -0.14
    H    -2.4675    -2.5624    -0.097
    H    -4.6093    -1.2947    0.07200000000000001
    H    -4.6368    1.1574    -0.053
    H    -2.4881    2.3773000000000004    0.09
    H    -0.01    2.1105    -0.7096
    H    0.01    2.1105    1.0096

