%NProcShared=16
%mem = 64GB
#n M062X/6-311++G(d,p) TD(NStates=1) EmpiricalDispersion=GD3 SP
 
 SP_-18

1 1
    C    -0.0    2.521455    1.360431
    C    -0.0    3.733908    0.6863889999999999
    C    0.0    3.700061    -0.6850299999999999
    C    0.0    2.427156    -1.393138
    C    -0.0    -2.499156    -1.421938
    C    0.0    -3.667661    -0.74263
    C    0.0    -3.669108    0.657589
    C    0.0    -2.463855    1.360431
    C    -0.0    0.0144    1.453369
    C    0.0    -0.052199999999999996    -1.429189
    C    0.0    1.245855    0.657265
    C    0.0    1.221271    -0.729004
    C    0.0    -1.278255    0.6968650000000001
    C    -0.0    -1.253671    -0.732604
    H    -0.0    2.497071    2.443647
    H    -0.0    4.669153    1.224289
    H    0.0    4.611062    -1.268749
    H    0.0    2.45135    -2.475659
    H    0.0    -0.045    -2.510266
    H    -0.0    -2.48375    -2.504459
    H    -0.0    -4.607462    -1.275949
    H    0.0    -4.604353    1.199089
    H    -0.0    -2.4790710000000002    2.443647
    H    -0.859585    0.07919999999999999    2.145787
    H    0.859585    0.07919999999999999    2.145787

