%NProcShared=16
%mem = 64GB
#n M062X/6-311++G(d,p) TD(NStates=1) EmpiricalDispersion=GD3 SP
 
 SP_-10

1 1
    C    -0.0    2.508655    1.360431
    C    -0.0    3.719508    0.679989
    C    0.0    3.6928609999999997    -0.69783
    C    0.0    2.443156    -1.399538
    C    -0.0    -2.483156    -1.415538
    C    0.0    -3.674861    -0.72983
    C    0.0    -3.6835080000000002    0.6639889999999999
    C    0.0    -2.476655    1.360431
    C    -0.0    0.008    1.453369
    C    0.0    -0.028999999999999998    -1.429189
    C    0.0    1.253055    0.666065
    C    0.0    1.228471    -0.729804
    C    0.0    -1.2710549999999998    0.688065
    C    -0.0    -1.2464709999999999    -0.731804
    H    -0.0    2.493071    2.443647
    H    -0.0    4.6547529999999995    1.218689
    H    0.0    4.6102620000000005    -1.270349
    H    0.0    2.4585500000000002    -2.482059
    H    0.0    -0.025    -2.510266
    H    -0.0    -2.47655    -2.498059
    H    -0.0    -4.608262    -1.274349
    H    0.0    -4.618753    1.2046890000000001
    H    -0.0    -2.4830710000000003    2.443647
    H    -0.859585    0.044000000000000004    2.145787
    H    0.859585    0.044000000000000004    2.145787

