%NProcShared=16
%mem = 64GB
#n M062X/6-311++G(d,p) TD(NStates=1) EmpiricalDispersion=GD3 SP
 
 SP_16

1 1
    C    0.0    2.467055    1.360431
    C    0.0    3.672708    0.6591889999999999
    C    -0.0    3.6694609999999996    -0.7394299999999999
    C    -0.0    2.495156    -1.4203379999999999
    C    0.0    -2.431156    -1.394738
    C    -0.0    -3.698261    -0.68823
    C    -0.0    -3.730308    0.684789
    C    -0.0    -2.518255    1.360431
    C    0.0    -0.0128    1.453369
    C    0.0    0.0464    -1.429189
    C    -0.0    1.276455    0.694665
    C    -0.0    1.251871    -0.732404
    C    -0.0    -1.247655    0.6594650000000001
    C    0.0    -1.223071    -0.729204
    H    0.0    2.480071    2.443647
    H    0.0    4.607952999999999    1.200489
    H    -0.0    4.607662    -1.275549
    H    -0.0    2.4819500000000003    -2.502859
    H    0.0    0.04    -2.510266
    H    0.0    -2.45315    -2.477259
    H    0.0    -4.610862    -1.2691489999999999
    H    -0.0    -4.665553    1.2228890000000001
    H    0.0    -2.496071    2.443647
    H    -0.859585    -0.0704    2.145787
    H    0.859585    -0.0704    2.145787

