%NProcShared=16
%mem = 64GB
#n M062X/6-311++G(d,p) TD(NStates=1) EmpiricalDispersion=GD3 SP
 
 SP_15

1 1
    C    0.0    2.468655    1.360431
    C    0.0    3.674508    0.6599889999999999
    C    -0.0    3.6703609999999998    -0.73783
    C    -0.0    2.493156    -1.419538
    C    0.0    -2.4331560000000003    -1.395538
    C    -0.0    -3.697361    -0.6898299999999999
    C    -0.0    -3.728508    0.683989
    C    -0.0    -2.516655    1.360431
    C    0.0    -0.012    1.453369
    C    0.0    0.0435    -1.429189
    C    -0.0    1.275555    0.693565
    C    -0.0    1.250971    -0.732304
    C    -0.0    -1.2485549999999999    0.6605650000000001
    C    0.0    -1.223971    -0.7293040000000001
    H    0.0    2.4805710000000003    2.443647
    H    0.0    4.6097529999999995    1.201189
    H    -0.0    4.607762    -1.2753489999999998
    H    -0.0    2.48105    -2.502059
    H    0.0    0.0375    -2.510266
    H    0.0    -2.45405    -2.478059
    H    0.0    -4.610762    -1.269349
    H    -0.0    -4.663753    1.222189
    H    0.0    -2.495571    2.443647
    H    -0.859585    -0.066    2.145787
    H    0.859585    -0.066    2.145787

