%NProcShared=16
%mem = 64GB
#n M062X/6-311++G(d,p) TD(NStates=1) EmpiricalDispersion=GD3 SP
 
 SP_-5

1 1
    C    -0.0    2.500655    1.360431
    C    -0.0    3.710508    0.675989
    C    0.0    3.688361    -0.70583
    C    0.0    2.4531560000000003    -1.403538
    C    -0.0    -2.473156    -1.411538
    C    0.0    -3.6793609999999997    -0.72183
    C    0.0    -3.692508    0.6679889999999999
    C    0.0    -2.484655    1.360431
    C    -0.0    0.004    1.453369
    C    0.0    -0.014499999999999999    -1.429189
    C    0.0    1.257555    0.6715650000000001
    C    0.0    1.232971    -0.7303040000000001
    C    0.0    -1.2665549999999999    0.682565
    C    -0.0    -1.241971    -0.731304
    H    -0.0    2.490571    2.443647
    H    -0.0    4.645753    1.215189
    H    0.0    4.609762    -1.271349
    H    0.0    2.46305    -2.486059
    H    0.0    -0.0125    -2.510266
    H    -0.0    -2.4720500000000003    -2.494059
    H    -0.0    -4.6087620000000005    -1.2733489999999998
    H    0.0    -4.627752999999999    1.208189
    H    -0.0    -2.485571    2.443647
    H    -0.859585    0.022000000000000002    2.145787
    H    0.859585    0.022000000000000002    2.145787

