%NProcShared=16
%mem = 64GB
#n M062X/6-311++G(d,p) TD(NStates=1) EmpiricalDispersion=GD3 SP
 
 SP_-2

1 1
    C    -0.0    2.495855    1.360431
    C    -0.0    3.705108    0.673589
    C    0.0    3.6856609999999996    -0.71063
    C    0.0    2.459156    -1.405938
    C    -0.0    -2.467156    -1.409138
    C    0.0    -3.682061    -0.71703
    C    0.0    -3.697908    0.6703889999999999
    C    0.0    -2.489455    1.360431
    C    -0.0    0.0016    1.453369
    C    0.0    -0.0058    -1.429189
    C    0.0    1.260255    0.674865
    C    0.0    1.235671    -0.730604
    C    0.0    -1.263855    0.679265
    C    -0.0    -1.239271    -0.731004
    H    -0.0    2.489071    2.443647
    H    -0.0    4.640352999999999    1.213089
    H    0.0    4.609462000000001    -1.271949
    H    0.0    2.4657500000000003    -2.488459
    H    0.0    -0.005    -2.510266
    H    -0.0    -2.46935    -2.491659
    H    -0.0    -4.609062    -1.272749
    H    0.0    -4.633153    1.210289
    H    -0.0    -2.4870710000000003    2.443647
    H    -0.859585    0.0088    2.145787
    H    0.859585    0.0088    2.145787

