%NProcShared=32
%mem = 128GB
#n M062X/6-311++G(d,p) TD(NStates=1) EmpiricalDispersion=GD3 SP
 
 SP_-3

1 1
    C    2.4927    1.3291    -0.051000000000000004
    C    3.7015    0.6627    -0.017
    C    3.6839    -0.7051    -0.016
    C    2.4632    -1.3969    0.05200000000000001
    C    -2.4632    -1.3609    0.068
    C    -3.6839    -0.7231    0.016
    C    -3.7015    0.6627    -0.0009999999999999992
    C    -2.4927    1.3771    -0.051000000000000004
    C    0.0    1.4541    -0.099
    C    0.0    -1.3915000000000002    0.081
    C    1.2621    0.6827    -0.013000000000000001
    C    1.2375    -0.7221    0.038
    C    -1.2621    0.7067    -0.035
    C    -1.2375    -0.7041    0.04
    H    2.4881    2.4053000000000004    -0.054000000000000006
    H    4.6368    1.1754    0.028999999999999998
    H    4.6093    -1.2827    -0.044000000000000004
    H    2.4675    -2.5263999999999998    0.055
    H    0.0    -2.4766    0.084
    H    -2.4675    -2.4184    0.07100000000000001
    H    -4.6093    -1.2467    -0.04
    H    -4.6368    1.2293999999999998    0.043
    H    -2.4881    2.4893    -0.054000000000000006
    H    0.006    2.1105    -0.9496
    H    -0.006    2.1105    0.7696000000000001

