%NProcShared=32
%mem = 128GB
#n M062X/6-311++G(d,p) TD(NStates=1) EmpiricalDispersion=GD3 SP
 
 SP_-2

1 1
    C    2.4927    1.3691    -0.034
    C    3.7015    0.6987    0.002
    C    3.6839    -0.6900999999999999    0.016
    C    2.4632    -1.4309    0.048
    C    -2.4632    -1.4069    0.032
    C    -3.6839    -0.7021    -0.016
    C    -3.7015    0.6987    -0.014
    C    -2.4927    1.4011    -0.034
    C    0.0    1.4701    -0.066
    C    0.0    -1.4495    0.054000000000000006
    C    1.2621    0.6687    -0.027
    C    1.2375    -0.7371    0.027000000000000003
    C    -1.2621    0.6847    -0.005000000000000001
    C    -1.2375    -0.7251    0.025
    H    2.4881    2.4293    -0.036
    H    4.6368    1.2204    0.031
    H    4.6093    -1.2747000000000002    -0.026000000000000002
    H    2.4675    -2.5263999999999998    0.049999999999999996
    H    0.0    -2.5265999999999997    0.05600000000000001
    H    -2.4675    -2.4543999999999997    0.033999999999999996
    H    -4.6093    -1.2507000000000001    -0.030000000000000006
    H    -4.6368    1.2564    0.017
    H    -2.4881    2.4853    -0.036
    H    0.004    2.1985    -0.9196
    H    -0.004    2.1985    0.7996000000000001

