%NProcShared=32
%mem = 128GB
#n M062X/6-311++G(d,p) TD(NStates=1) EmpiricalDispersion=GD3 SP
 
 SP_2

1 1
    C    2.4927    1.4491    0.034
    C    3.7015    0.7526999999999999    0.038
    C    3.6839    -0.6750999999999999    0.064
    C    2.4632    -1.4669    -0.008
    C    -2.4632    -1.4909000000000001    -0.07200000000000001
    C    -3.6839    -0.6630999999999999    -0.064
    C    -3.7015    0.7526999999999999    -0.026000000000000002
    C    -2.4927    1.4171    0.034
    C    0.0    1.4941    0.066
    C    0.0    -1.5365000000000002    -0.054000000000000006
    C    1.2621    0.6577    -0.027999999999999997
    C    1.2375    -0.7521    -0.022000000000000002
    C    -1.2621    0.6416999999999999    0.06
    C    -1.2375    -0.7641    -0.030000000000000002
    H    2.4881    2.5003    0.036
    H    4.6368    1.3104    0.0040000000000000036
    H    4.6093    -1.2477    0.036000000000000004
    H    2.4675    -2.4814    -0.009999999999999995
    H    0.0    -2.6016    -0.05600000000000001
    H    -2.4675    -2.5534    -0.074
    H    -4.6093    -1.2717    0.020000000000000004
    H    -4.6368    1.2744    -0.052000000000000005
    H    -2.4881    2.4443    0.036
    H    -0.004    2.3305000000000002    -0.7996000000000001
    H    0.004    2.3305000000000002    0.9196

