%NProcShared=32
%mem = 128GB
#n M062X/6-311++G(d,p) TD(NStates=1) EmpiricalDispersion=GD3 SP
 
 SP_2

1 1
    C    2.4927    1.3211    0.034
    C    3.7015    0.6087    -0.026000000000000002
    C    3.6839    -0.7471    -0.064
    C    2.4632    -1.3069    -0.07200000000000001
    C    -2.4632    -1.3309    -0.008
    C    -3.6839    -0.7351    0.064
    C    -3.7015    0.6087    0.038
    C    -2.4927    1.2891    0.034
    C    0.0    1.4301    0.066
    C    0.0    -1.3045    -0.054000000000000006
    C    1.2621    0.7297    0.06
    C    1.2375    -0.6800999999999999    -0.030000000000000002
    C    -1.2621    0.7137    -0.027999999999999997
    C    -1.2375    -0.6920999999999999    -0.022000000000000002
    H    2.4881    2.4603    0.036
    H    4.6368    1.1663999999999999    -0.052000000000000005
    H    4.6093    -1.2557    0.020000000000000004
    H    2.4675    -2.4093999999999998    -0.074
    H    0.0    -2.4015999999999997    -0.05600000000000001
    H    -2.4675    -2.4814    -0.009999999999999995
    H    -4.6093    -1.2797    0.036000000000000004
    H    -4.6368    1.1303999999999998    0.0040000000000000036
    H    -2.4881    2.4043    0.036
    H    -0.004    1.9785000000000001    -0.7996000000000001
    H    0.004    1.9785000000000001    0.9196

