%NProcShared=32
%mem = 128GB
#n M062X/6-311++G(d,p) TD(NStates=1) EmpiricalDispersion=GD3 SP
 
 SP_-3

1 1
    C    2.4927    1.4091    -0.051000000000000004
    C    3.7015    0.7526999999999999    0.023
    C    3.6839    -0.6600999999999999    0.064
    C    2.4632    -1.4969000000000001    0.09200000000000001
    C    -2.4632    -1.4609    0.02800000000000001
    C    -3.6839    -0.6780999999999999    -0.064
    C    -3.7015    0.7526999999999999    -0.041
    C    -2.4927    1.4571    -0.051000000000000004
    C    0.0    1.4941    -0.099
    C    0.0    -1.5365000000000002    0.081
    C    1.2621    0.6376999999999999    -0.068
    C    1.2375    -0.7671    0.043
    C    -1.2621    0.6617    0.019999999999999997
    C    -1.2375    -0.7491    0.035
    H    2.4881    2.4303000000000003    -0.054000000000000006
    H    4.6368    1.2654    0.064
    H    4.6093    -1.2777    -0.034
    H    2.4675    -2.5713999999999997    0.095
    H    0.0    -2.6016    0.084
    H    -2.4675    -2.4634    0.031
    H    -4.6093    -1.2417    -0.05
    H    -4.6368    1.3194    0.007999999999999993
    H    -2.4881    2.5143    -0.054000000000000006
    H    0.006    2.3305000000000002    -0.9496
    H    -0.006    2.3305000000000002    0.7696000000000001

