%NProcShared=32
%mem = 128GB
#n M062X/6-311++G(d,p) TD(NStates=1) EmpiricalDispersion=GD3 SP
 
 SP_-3

1 1
    C    2.4927    1.2971    -0.051000000000000004
    C    3.7015    0.6266999999999999    -0.033
    C    3.6839    -0.7231    -0.048
    C    2.4632    -1.3569    0.03600000000000001
    C    -2.4632    -1.3209    0.08400000000000002
    C    -3.6839    -0.7411    0.048
    C    -3.7015    0.6266999999999999    0.015000000000000001
    C    -2.4927    1.3451    -0.051000000000000004
    C    0.0    1.4381    -0.099
    C    0.0    -1.3335000000000001    0.081
    C    1.2621    0.7007    0.009000000000000001
    C    1.2375    -0.7041    0.036
    C    -1.2621    0.7247    -0.057
    C    -1.2375    -0.6860999999999999    0.042
    H    2.4881    2.3953    -0.054000000000000006
    H    4.6368    1.1394    0.014999999999999996
    H    4.6093    -1.2847    -0.048
    H    2.4675    -2.5083999999999995    0.039
    H    0.0    -2.4265999999999996    0.084
    H    -2.4675    -2.4004    0.087
    H    -4.6093    -1.2487    -0.036000000000000004
    H    -4.6368    1.1933999999999998    0.056999999999999995
    H    -2.4881    2.4793    -0.054000000000000006
    H    0.006    2.0225    -0.9496
    H    -0.006    2.0225    0.7696000000000001

