%NProcShared=32
%mem = 128GB
#n M062X/6-311++G(d,p) TD(NStates=1) EmpiricalDispersion=GD3 SP
 
 SP_-1

1 1
    C    2.4927    1.2971    -0.017
    C    3.7015    0.6087    -0.035
    C    3.6839    -0.7381    -0.064
    C    2.4632    -1.3249    -0.012
    C    -2.4632    -1.3129    0.052000000000000005
    C    -3.6839    -0.7441    0.064
    C    -3.7015    0.6087    0.029
    C    -2.4927    1.3131    -0.017
    C    0.0    1.4301    -0.033
    C    0.0    -1.3045    0.027000000000000003
    C    1.2621    0.7177    0.036
    C    1.2375    -0.6890999999999999    0.009000000000000001
    C    -1.2621    0.7257    -0.052
    C    -1.2375    -0.6830999999999999    0.017
    H    2.4881    2.4183000000000003    -0.018
    H    4.6368    1.1394    -0.016000000000000004
    H    4.6093    -1.2737    -0.022000000000000002
    H    2.4675    -2.4633999999999996    -0.011000000000000003
    H    0.0    -2.4015999999999997    0.028000000000000004
    H    -2.4675    -2.4274    0.053
    H    -4.6093    -1.2617    -0.006000000000000002
    H    -4.6368    1.1573999999999998    0.04000000000000001
    H    -2.4881    2.4463    -0.018
    H    0.002    1.9785000000000001    -0.8896000000000001
    H    -0.002    1.9785000000000001    0.8296

