%NProcShared=32
%mem = 128GB
#n M062X/6-311++G(d,p) TD(NStates=1) EmpiricalDispersion=GD3 SP
 
 SP_-4

1 1
    C    2.4927    1.3691    -0.068
    C    3.7015    0.7167    0.004
    C    3.6839    -0.6750999999999999    0.032
    C    2.4632    -1.4629    0.096
    C    -2.4632    -1.4149    0.064
    C    -3.6839    -0.6990999999999999    -0.032
    C    -3.7015    0.7167    -0.028
    C    -2.4927    1.4331    -0.068
    C    0.0    1.4781    -0.132
    C    0.0    -1.4785000000000001    0.10800000000000001
    C    1.2621    0.6517    -0.054
    C    1.2375    -0.7521    0.054000000000000006
    C    -1.2621    0.6837    -0.010000000000000002
    C    -1.2375    -0.7281    0.05
    H    2.4881    2.4063    -0.072
    H    4.6368    1.2204    0.062
    H    4.6093    -1.2857    -0.052000000000000005
    H    2.4675    -2.5713999999999997    0.09999999999999999
    H    0.0    -2.5515999999999996    0.11200000000000002
    H    -2.4675    -2.4273999999999996    0.06799999999999999
    H    -4.6093    -1.2377    -0.06000000000000001
    H    -4.6368    1.2924    0.034
    H    -2.4881    2.5183    -0.072
    H    0.008    2.2425    -0.9796
    H    -0.008    2.2425    0.7396

