%NProcShared=32
%mem = 128GB
#n M062X/6-311++G(d,p) TD(NStates=1) EmpiricalDispersion=GD3 SP
 
 SP_3

1 1
    C    2.4927    1.4411    0.051000000000000004
    C    3.7015    0.7347    0.033
    C    3.6839    -0.6870999999999999    0.048
    C    2.4632    -1.4409    -0.03600000000000001
    C    -2.4632    -1.4769    -0.08400000000000002
    C    -3.6839    -0.6690999999999999    -0.048
    C    -3.7015    0.7347    -0.015000000000000001
    C    -2.4927    1.3931    0.051000000000000004
    C    0.0    1.4861    0.099
    C    0.0    -1.5075    -0.081
    C    1.2621    0.6707    -0.009000000000000001
    C    1.2375    -0.7401    -0.036
    C    -1.2621    0.6466999999999999    0.057
    C    -1.2375    -0.7581    -0.042
    H    2.4881    2.5093    0.054000000000000006
    H    4.6368    1.3014    -0.014999999999999996
    H    4.6093    -1.2427000000000001    0.048
    H    2.4675    -2.4544    -0.039
    H    0.0    -2.5766    -0.084
    H    -2.4675    -2.5624    -0.087
    H    -4.6093    -1.2787000000000002    0.036000000000000004
    H    -4.6368    1.2474    -0.056999999999999995
    H    -2.4881    2.4253000000000005    0.054000000000000006
    H    -0.006    2.2865    -0.7696000000000001
    H    0.006    2.2865    0.9496

