%NProcShared=32
%mem = 128GB
#n M062X/6-311++G(d,p) TD(NStates=1) EmpiricalDispersion=GD3 SP
 
 SP_-3

1 1
    C    2.4927    1.3771    -0.051000000000000004
    C    3.7015    0.7167    0.007000000000000001
    C    3.6839    -0.6780999999999999    0.032
    C    2.4632    -1.4569    0.07600000000000001
    C    -2.4632    -1.4209    0.04400000000000001
    C    -3.6839    -0.6960999999999999    -0.032
    C    -3.7015    0.7167    -0.025
    C    -2.4927    1.4251    -0.051000000000000004
    C    0.0    1.4781    -0.099
    C    0.0    -1.4785000000000001    0.081
    C    1.2621    0.6557    -0.046
    C    1.2375    -0.7491    0.041
    C    -1.2621    0.6797    -0.0020000000000000018
    C    -1.2375    -0.7311    0.037
    H    2.4881    2.4203    -0.054000000000000006
    H    4.6368    1.2294    0.05
    H    4.6093    -1.2797    -0.038000000000000006
    H    2.4675    -2.5533999999999994    0.079
    H    0.0    -2.5515999999999996    0.084
    H    -2.4675    -2.4454    0.047
    H    -4.6093    -1.2437    -0.046
    H    -4.6368    1.2833999999999999    0.021999999999999995
    H    -2.4881    2.5042999999999997    -0.054000000000000006
    H    0.006    2.2425    -0.9496
    H    -0.006    2.2425    0.7696000000000001

