%NProcShared=32
%mem = 128GB
#n M062X/6-311++G(d,p) TD(NStates=1) EmpiricalDispersion=GD3 SP
 
 SP_3

1 1
    C    2.4927    1.3291    0.051000000000000004
    C    3.7015    0.6087    -0.023
    C    3.6839    -0.7501    -0.064
    C    2.4632    -1.3009    -0.09200000000000001
    C    -2.4632    -1.3369    -0.02800000000000001
    C    -3.6839    -0.7321    0.064
    C    -3.7015    0.6087    0.041
    C    -2.4927    1.2811    0.051000000000000004
    C    0.0    1.4301    0.099
    C    0.0    -1.3045    -0.081
    C    1.2621    0.7337    0.068
    C    1.2375    -0.6770999999999999    -0.043
    C    -1.2621    0.7097    -0.019999999999999997
    C    -1.2375    -0.6950999999999999    -0.035
    H    2.4881    2.4743    0.054000000000000006
    H    4.6368    1.1753999999999998    -0.064
    H    4.6093    -1.2497    0.034
    H    2.4675    -2.3914    -0.095
    H    0.0    -2.4015999999999997    -0.084
    H    -2.4675    -2.4993999999999996    -0.031
    H    -4.6093    -1.2857    0.05
    H    -4.6368    1.1214    -0.007999999999999993
    H    -2.4881    2.3903000000000003    0.054000000000000006
    H    -0.006    1.9785000000000001    -0.7696000000000001
    H    0.006    1.9785000000000001    0.9496

