%NProcShared=32
%mem = 128GB
#n M062X/6-311++G(d,p) TD(NStates=1) EmpiricalDispersion=GD3 SP
 
 SP_4

1 1
    C    2.4927    1.4491    0.068
    C    3.7015    0.7347    0.036000000000000004
    C    3.6839    -0.6900999999999999    0.048
    C    2.4632    -1.4349    -0.056
    C    -2.4632    -1.4829    -0.10400000000000001
    C    -3.6839    -0.6660999999999999    -0.048
    C    -3.7015    0.7347    -0.012
    C    -2.4927    1.3851    0.068
    C    0.0    1.4861    0.132
    C    0.0    -1.5075    -0.10800000000000001
    C    1.2621    0.6747    -0.0010000000000000009
    C    1.2375    -0.7371    -0.049
    C    -1.2621    0.6426999999999999    0.065
    C    -1.2375    -0.7611    -0.05500000000000001
    H    2.4881    2.5233000000000003    0.072
    H    4.6368    1.3104    -0.027
    H    4.6093    -1.2367000000000001    0.062000000000000006
    H    2.4675    -2.4364    -0.05999999999999999
    H    0.0    -2.5766    -0.11200000000000002
    H    -2.4675    -2.5804    -0.10799999999999998
    H    -4.6093    -1.2847000000000002    0.05000000000000001
    H    -4.6368    1.2384    -0.069
    H    -2.4881    2.4113    0.072
    H    -0.008    2.2865    -0.7396
    H    0.008    2.2865    0.9796

