%NProcShared=32
%mem = 128GB
#n M062X/6-311++G(d,p) TD(NStates=1) EmpiricalDispersion=GD3 SP
 
 SP_-1

1 1
    C    2.4927    1.3931    -0.017
    C    3.7015    0.7167    0.013000000000000001
    C    3.6839    -0.6840999999999999    0.032
    C    2.4632    -1.4449    0.036000000000000004
    C    -2.4632    -1.4329    0.004
    C    -3.6839    -0.6900999999999999    -0.032
    C    -3.7015    0.7167    -0.019
    C    -2.4927    1.4091    -0.017
    C    0.0    1.4781    -0.033
    C    0.0    -1.4785000000000001    0.027000000000000003
    C    1.2621    0.6637    -0.03
    C    1.2375    -0.7431    0.015000000000000001
    C    -1.2621    0.6717    0.013999999999999999
    C    -1.2375    -0.7371    0.011000000000000001
    H    2.4881    2.4483    -0.018
    H    4.6368    1.2474    0.026000000000000002
    H    4.6093    -1.2677    -0.010000000000000002
    H    2.4675    -2.5173999999999994    0.037
    H    0.0    -2.5515999999999996    0.028000000000000004
    H    -2.4675    -2.4814    0.0049999999999999975
    H    -4.6093    -1.2557    -0.018000000000000002
    H    -4.6368    1.2653999999999999    -0.0020000000000000018
    H    -2.4881    2.4762999999999997    -0.018
    H    0.002    2.2425    -0.8896000000000001
    H    -0.002    2.2425    0.8296

