%NProcShared=32
%mem = 128GB
#n M062X/6-311++G(d,p) TD(NStates=1) EmpiricalDispersion=GD3 SP
 
 SP_-1

1 1
    C    2.4927    1.4251    -0.017
    C    3.7015    0.7526999999999999    0.029
    C    3.6839    -0.6660999999999999    0.064
    C    2.4632    -1.4849    0.052000000000000005
    C    -2.4632    -1.4729    -0.012
    C    -3.6839    -0.6720999999999999    -0.064
    C    -3.7015    0.7526999999999999    -0.035
    C    -2.4927    1.4411    -0.017
    C    0.0    1.4941    -0.033
    C    0.0    -1.5365000000000002    0.027000000000000003
    C    1.2621    0.6456999999999999    -0.052
    C    1.2375    -0.7611    0.017
    C    -1.2621    0.6537    0.036
    C    -1.2375    -0.7551    0.009000000000000001
    H    2.4881    2.4583000000000004    -0.018
    H    4.6368    1.2834    0.04000000000000001
    H    4.6093    -1.2657    -0.006000000000000002
    H    2.4675    -2.5353999999999997    0.053
    H    0.0    -2.6016    0.028000000000000004
    H    -2.4675    -2.4994    -0.011000000000000003
    H    -4.6093    -1.2537    -0.022000000000000002
    H    -4.6368    1.3014    -0.016000000000000004
    H    -2.4881    2.4863    -0.018
    H    0.002    2.3305000000000002    -0.8896000000000001
    H    -0.002    2.3305000000000002    0.8296

