%NProcShared=32
%mem = 128GB
#n M062X/6-311++G(d,p) TD(NStates=1) EmpiricalDispersion=GD3 SP
 
 SP_-1

1 1
    C    2.4927    1.3611    -0.017
    C    3.7015    0.6807    -0.003
    C    3.6839    -0.7021    0.0
    C    2.4632    -1.4049    0.02
    C    -2.4632    -1.3929    0.02
    C    -3.6839    -0.7081    0.0
    C    -3.7015    0.6807    -0.003
    C    -2.4927    1.3771    -0.017
    C    0.0    1.4621    -0.033
    C    0.0    -1.4205    0.027000000000000003
    C    1.2621    0.6817    -0.008
    C    1.2375    -0.7251    0.013000000000000001
    C    -1.2621    0.6897    -0.008
    C    -1.2375    -0.7191    0.013000000000000001
    H    2.4881    2.4383000000000004    -0.018
    H    4.6368    1.2114    0.012
    H    4.6093    -1.2697    -0.014000000000000002
    H    2.4675    -2.4993999999999996    0.020999999999999998
    H    0.0    -2.5016    0.028000000000000004
    H    -2.4675    -2.4634    0.020999999999999998
    H    -4.6093    -1.2577    -0.014000000000000002
    H    -4.6368    1.2293999999999998    0.012
    H    -2.4881    2.4663    -0.018
    H    0.002    2.1545    -0.8896000000000001
    H    -0.002    2.1545    0.8296

