%NProcShared=32
%mem = 128GB
#n M062X/6-311++G(d,p) TD(NStates=1) EmpiricalDispersion=GD3 SP
 
 SP_-1

1 1
    C    2.4927    1.3451    -0.017
    C    3.7015    0.6627    -0.011
    C    3.6839    -0.7111    -0.016
    C    2.4632    -1.3849    0.012
    C    -2.4632    -1.3729    0.028
    C    -3.6839    -0.7171    0.016
    C    -3.7015    0.6627    0.005
    C    -2.4927    1.3611    -0.017
    C    0.0    1.4541    -0.033
    C    0.0    -1.3915000000000002    0.027000000000000003
    C    1.2621    0.6907    0.002999999999999999
    C    1.2375    -0.7161    0.012
    C    -1.2621    0.6987    -0.019
    C    -1.2375    -0.7101    0.014000000000000002
    H    2.4881    2.4333000000000005    -0.018
    H    4.6368    1.1934    0.004999999999999999
    H    4.6093    -1.2707    -0.016
    H    2.4675    -2.4903999999999997    0.012999999999999998
    H    0.0    -2.4766    0.028000000000000004
    H    -2.4675    -2.4544    0.028999999999999998
    H    -4.6093    -1.2587    -0.012000000000000002
    H    -4.6368    1.2113999999999998    0.019000000000000003
    H    -2.4881    2.4613    -0.018
    H    0.002    2.1105    -0.8896000000000001
    H    -0.002    2.1105    0.8296

